time,temperature,strain_11,strain_22,strain_33,strain_23,strain_13,strain_12,stress_11,stress_22,stress_33,stress_23,stress_13,stress_12
0.000000000000000000e+00,3.000000000000000000e+02,0.000000000000000000e+00,0.000000000000000000e+00,0.000000000000000000e+00,0.000000000000000000e+00,0.000000000000000000e+00,0.000000000000000000e+00,0.000000000000000000e+00,0.000000000000000000e+00,0.000000000000000000e+00,0.000000000000000000e+00,0.000000000000000000e+00,0.000000000000000000e+00
1.000000000000000000e+01,3.000000000000000000e+02,1.000000000000000021e-03,-5.828802118571940359e-04,-1.492231280674942494e-04,-1.028191582634030806e-04,-7.630139467586654646e-05,-4.571308636417470211e-04,5.357933201352827268e+01,2.201876705359257728e-10,1.313906099824722974e-09,1.990176331217076574e-10,1.460280094326248525e-09,-2.016188052344098378e-09
2.000000000000000000e+01,3.000000000000000000e+02,2.000000000000000042e-03,-1.517272193945371330e-03,-1.919130319013565467e-04,-3.141549042537830996e-04,-2.331818173818299748e-04,-1.395364252198930425e-03,5.816295482904701686e+01,2.292930294134298860e-10,1.377987277313509686e-09,1.920105485043666811e-10,1.457839641940754368e-09,-2.098715080087927614e-09
3.000000000000000000e+01,3.000000000000000000e+02,3.000000000000000062e-03,-2.474953576083873102e-03,-2.273109132869762818e-04,-5.325661131279266734e-04,-3.953304823298289068e-04,-2.361669249508114958e-03,5.954710212168917138e+01,8.674786127784655546e-10,3.273327388883291348e-09,-8.996259933338785100e-10,-2.080401968292103500e-09,-4.457916969963592259e-09
4.000000000000000000e+01,3.000000000000000000e+02,4.000000000000000083e-03,-3.434335415725208764e-03,-2.619590892537836482e-04,-7.513898405395761856e-04,-5.576793868360896888e-04,-3.325724799853292928e-03,6.074109899908511778e+01,1.133616360677321519e-09,3.982609243843657348e-09,-1.188966297087032952e-09,-3.089940222260952962e-09,-5.485927115466287468e-09
5.000000000000000000e+01,3.000000000000000000e+02,5.000000000000000104e-03,-4.394357889377610397e-03,-2.961896353187792809e-04,-9.703063826714101742e-04,-7.199547518455763281e-04,-4.286037394353582261e-03,6.189049504718241224e+01,3.241449413226806617e-09,1.029811592348763089e-08,-4.266679965767241186e-09,-1.324107167258560059e-08,-1.383001571575995339e-08
6.000000000000000000e+01,3.000000000000000000e+02,6.000000000000000125e-03,-5.354947750312340563e-03,-3.300353562937892926e-04,-1.189300374940716184e-03,-8.821159568490332141e-04,-5.242505223624582128e-03,6.300337865613245469e+01,5.530770553756853016e-09,1.711063186793735808e-08,-7.672905763428259003e-09,-2.460638039423039961e-08,-2.280787065956367773e-08
7.000000000000000000e+01,3.000000000000000000e+02,7.000000000000000146e-03,-6.316080154294454775e-03,-3.635139045164463762e-04,-1.408371063231871403e-03,-1.044134888517731776e-03,-6.195095365022645212e-03,6.408118820617028177e+01,7.810655414397590353e-09,2.383873813802641604e-08,-1.109542755056530935e-08,-3.615912628953175666e-08,-3.167951259910466294e-08
8.000000000000000000e+01,3.000000000000000000e+02,8.000000000000000167e-03,-7.277733481936774981e-03,-3.966414962373742575e-04,-1.627518372382892641e-03,-1.205985277514502393e-03,-7.143780296227598622e-03,6.512500432468407041e+01,1.005874229732086111e-08,3.042727497143469073e-08,-1.449131356391736382e-08,-4.774246038455183905e-08,-4.037831052888044268e-08
9.000000000000000000e+01,3.000000000000000000e+02,9.000000000000001055e-03,-8.239887092456082279e-03,-4.294336126115325266e-04,-1.846742226096378774e-03,-1.367642127148090744e-03,-8.088534704017099480e-03,6.613585893736706112e+01,1.226200293603232843e-08,3.684811125614654094e-08,-1.783458417845619711e-08,-5.925442110909150502e-08,-4.887048708264673174e-08
1.000000000000000000e+02,3.000000000000000000e+02,1.000000000000000194e-02,-9.202521179751777664e-03,-4.619050620249682540e-04,-2.066042515063619932e-03,-1.529081636900591354e-03,-9.029335234137590704e-03,6.711475158716559974e+01,1.440921321379282179e-08,4.307631991538627652e-08,-2.110327824710113955e-08,-7.060640070992298180e-08,-5.712518681587337459e-08
1.100000000000000000e+02,3.000000000000000000e+02,1.100000000000000283e-02,-1.016561673425860589e-02,-4.940700096512762969e-04,-2.285419097318178595e-03,-1.690281152055412824e-03,-9.966160390611274178e-03,6.806265115244427477e+01,1.649017086340762145e-08,4.908957181319594349e-08,-2.427884555111750922e-08,-8.172124149298725233e-08,-6.511370538452505744e-08
1.200000000000000000e+02,3.000000000000000000e+02,1.200000000000000372e-02,-1.112915551117835827e-02,-5.259420044367114693e-04,-2.504871800165737149e-03,-1.851219116125628296e-03,-1.089899044608336719e-02,6.898049680362166214e+01,1.849629266512003157e-08,5.486865748797564090e-08,-2.734592244310703588e-08,-9.253295641950483098e-08,-7.281116408255531377e-08
1.300000000000000000e+02,3.000000000000000000e+02,1.300000000000000461e-02,-1.209312000004865439e-02,-5.575340050534170408e-04,-2.724400422135629055e-03,-2.011875024903625811e-03,-1.182780735615259621e-02,6.986919889876720902e+01,2.042108145406084967e-08,6.039822865472209968e-08,-3.029230484264328023e-08,-1.029866829347578787e-07,-8.019625009838736928e-08
1.400000000000000000e+02,3.000000000000000000e+02,1.400000000000000550e-02,-1.305749339537713542e-02,-5.888584049117541290e-04,-2.944004734871633663e-03,-2.172229382064277264e-03,-1.275259467723630080e-02,7.072963985429812794e+01,2.225881501007564708e-08,6.566613146837950676e-08,-3.310859196190515429e-08,-1.130379481330902961e-07,-8.725190393212676211e-08
1.500000000000000000e+02,3.000000000000000000e+02,1.500000000000000638e-02,-1.402225956831191882e-02,-6.199270562506022011e-04,-3.163684484955969854e-03,-2.332263656305491942e-03,-1.367333748785583974e-02,7.156267499282745348e+01,2.400552667315310846e-08,7.066391766441599888e-08,-3.578807040483754928e-08,-1.226522501626438377e-07,-9.396548833536832706e-08
1.600000000000000000e+02,3.000000000000000000e+02,1.600000000000000727e-02,-1.498740303932965916e-02,-6.507512933227802129e-04,-3.383439395664968909e-03,-2.491960240008036977e-03,-1.459002231324252156e-02,7.236913336846799893e+01,2.565870513799635148e-08,7.538657533053424465e-08,-3.832637972310932079e-08,-1.318042003437302757e-07,-1.003285735694002012e-07
1.700000000000000000e+02,3.000000000000000000e+02,1.700000000000000816e-02,-1.595290895192116865e-02,-6.813419546943544087e-04,-3.603269168655681524e-03,-2.651302409392407473e-03,-1.550263705316304655e-02,7.314981856984661590e+01,2.721754621361103549e-08,7.983246643931106333e-08,-4.072131645878212720e-08,-1.404769373952950871e-07,-1.063369736688664647e-07
1.800000000000000000e+02,3.000000000000000000e+02,1.800000000000000905e-02,-1.691876304725294447e-02,-7.117094046780937005e-04,-3.823173485583150968e-03,-2.810274286146913214e-03,-1.641117091286202131e-02,7.390550950111008888e+01,2.868133723708218805e-08,8.400238227160039595e-08,-4.297250659430339434e-08,-1.486608596117009381e-07,-1.119899750055820804e-07
1.900000000000000000e+02,3.000000000000000000e+02,1.900000000000000994e-02,-1.788495163978151906e-02,-7.418635539225406977e-04,-4.043152009648502861e-03,-2.968860800498114225e-03,-1.731561433701840971e-02,7.463696114123824543e+01,3.005122604403695984e-08,8.790003563070525309e-08,-4.508121099478722978e-08,-1.563531715578962742e-07,-1.172904206492975807e-07
2.000000000000000000e+02,3.000000000000000000e+02,2.000000000000001082e-02,-1.885146159379658473e-02,-7.718138791791265187e-04,-4.263204387078368962e-03,-3.127047655692198440e-03,-1.821595894661262247e-02,7.534490528199867754e+01,3.132923258273846795e-08,9.153139410515442948e-08,-4.704999949954778295e-08,-1.635566973725143694e-07,-1.222441701228410331e-07
2.100000000000000000e+02,3.000000000000000000e+02,2.100000000000001171e-02,-1.981828030086789719e-02,-8.015694422704765579e-04,-4.483330248536444677e-03,-3.284821293853850809e-03,-1.911219747860129839e-02,7.603005124490542244e+01,3.251766404132951601e-08,9.490403831999927305e-08,-4.888257697167218335e-08,-1.702791580926548460e-07,-1.268594675013773415e-07
2.200000000000000000e+02,3.000000000000000000e+02,2.200000000000001260e-02,-2.078539565817038443e-02,-8.311389082835815220e-04,-4.703529210468264908e-03,-3.442168863187518649e-03,-2.000432372829766964e-02,7.669308657756242553e+01,3.361932409279779521e-08,9.802703766816749799e-08,-5.058352358789907410e-08,-1.765322734458997889e-07,-1.311468082819356524e-07
2.300000000000000000e+02,3.000000000000000000e+02,2.300000000000001349e-02,-2.175279604766149066e-02,-8.605305630118456704e-04,-4.923800876380481084e-03,-3.599078186484705195e-03,-2.089233249435657261e-02,7.733467772978616495e+01,3.463783730025662281e-08,1.009108247079107168e-07,-5.215807876207956735e-08,-1.823310240838282048e-07,-1.351183872084503947e-07
2.400000000000000000e+02,3.000000000000000000e+02,2.400000000000001438e-02,-2.272047031608450188e-02,-8.897523296702125172e-04,-5.144144838056119093e-03,-3.755537730899985265e-03,-2.177621952626471874e-02,7.795547070991520400e+01,3.557735963985960069e-08,1.035667922781916828e-07,-5.361205661676533512e-08,-1.876930593231581183e-07,-1.387878258351573986e-07
2.500000000000000000e+02,3.000000000000000000e+02,2.500000000000001527e-02,-2.368840775577152682e-02,-9.188117849076108670e-04,-5.364560676707424459e-03,-3.911536578957794212e-03,-2.265598147423859496e-02,7.855609172172627552e+01,3.644188217605629948e-08,1.060068117211165301e-07,-5.495153575892589232e-08,-1.926378337670683094e-07,-1.421695019673466171e-07
2.600000000000000000e+02,3.000000000000000000e+02,2.600000000000001615e-02,-2.465659808621981086e-02,-9.477161741408948780e-04,-5.585047964068047717e-03,-4.067064400751644118e-03,-2.353161584143443480e-02,7.913714778238337999e+01,3.723519309362632448e-08,1.082429006214308765e-07,-5.618289240061460149e-08,-1.971862453089774409e-07,-1.452785721997626581e-07
2.700000000000000000e+02,3.000000000000000000e+02,2.700000000000001704e-02,-2.562503143641522291e-02,-9.764724262342717662e-04,-5.805606263426387088e-03,-4.222111427297253750e-03,-2.440312093837685228e-02,7.969922732185442271e+01,3.796174323435624224e-08,1.102876069724717255e-07,-5.731256690989240614e-08,-2.013600030647261108e-07,-1.481305669706904720e-07
2.800000000000000000e+02,3.000000000000000000e+02,2.800000000000001793e-02,-2.659369832787702309e-02,-1.005087167547950118e-03,-6.026235130601994942e-03,-4.376668425001120459e-03,-2.527049583951515230e-02,8.024290076422887807e+01,3.862597653761020710e-08,1.121533635426191843e-07,-5.834699734488781001e-08,-2.051813975586851975e-07,-1.507412099087504446e-07
2.900000000000000000e+02,3.000000000000000000e+02,2.900000000000001882e-02,-2.756258965839830655e-02,-1.033566735379393749e-03,-6.246934114866998719e-03,-4.530726671206245643e-03,-2.613374034181875638e-02,8.076872109137838152e+01,3.923220846998389740e-08,1.138524804219300340e-07,-5.929257575114142640e-08,-2.086727234101373297e-07,-1.531261141841758603e-07
3.000000000000000000e+02,3.000000000000000000e+02,3.000000000000001971e-02,-2.853169668645694906e-02,-1.061917190820166421e-03,-6.467702759814508706e-03,-4.684277930777097469e-03,-2.699285492532578490e-02,8.127722438939858307e+01,3.978464047414193845e-08,1.153969483340588434e-07,-6.015550271384312375e-08,-2.118561114301349180e-07,-1.553006740664524387e-07
3.100000000000000000e+02,3.000000000000000000e+02,3.100000000000002059e-02,-2.950101101627233477e-02,-1.090144331050894519e-03,-6.688540604176023210e-03,-4.837314433686343458e-03,-2.784784071556144908e-02,8.176893037827240107e+01,4.028695429412373443e-08,1.167981917920918784e-07,-6.094181121417922241e-08,-2.147532616368495940e-07,-1.572797082877845681e-07
3.200000000000000000e+02,3.000000000000000000e+02,3.200000000000002148e-02,-3.047052458348363524e-02,-1.118253701096368720e-03,-6.909447182589819984e-03,-4.989828853566486561e-03,-2.869869944774558826e-02,8.224434292519242717e+01,4.074312401233891036e-08,1.180673217930850689e-07,-6.165718415014970558e-08,-2.173851043010320328e-07,-1.590780197412474057e-07
3.300000000000000000e+02,3.000000000000000000e+02,3.300000000000002237e-02,-3.144022964142600962e-02,-1.146250605062272120e-03,-7.130422026322343586e-03,-5.141814287190203669e-03,-2.954543343271135922e-02,8.270395054197581430e+01,4.115677877680893093e-08,1.192149665247790059e-07,-6.230719600726320127e-08,-2.197719560237151656e-07,-1.607092876320104263e-07
3.400000000000000000e+02,3.000000000000000000e+02,3.400000000000002326e-02,-3.241011874798163661e-02,-1.174140116874456893e-03,-7.351464663944545438e-03,-5.293264234843927073e-03,-3.038804552445983909e-02,8.314822686700341592e+01,4.153101292429167633e-08,1.202510327289897669e-07,-6.289713954958877673e-08,-2.219331555152622510e-07,-1.621865848306060086e-07
3.500000000000000000e+02,3.000000000000000000e+02,3.500000000000002415e-02,-3.338018475298309973e-02,-1.201927090541100862e-03,-7.572574621965140300e-03,-5.444172581560025558e-03,-3.122653908927794028e-02,8.357763113210928907e+01,4.186972703147506210e-08,1.211851899440924214e-07,-6.343190430394681893e-08,-2.238871415419867701e-07,-1.635227360593291487e-07
3.600000000000000000e+02,3.000000000000000000e+02,3.600000000000002504e-02,-3.435042078614734123e-02,-1.229616169957476260e-03,-7.793751425422696007e-03,-5.594533579173790148e-03,-3.206091797634971069e-02,8.399260861483942620e+01,4.217537273388705868e-08,1.220261584990755987e-07,-6.391615609037139915e-08,-2.256511381320064430e-07,-1.647291582373434854e-07
3.700000000000000000e+02,3.000000000000000000e+02,3.700000000000002592e-02,-3.532082024551890659e-02,-1.257211798272452746e-03,-8.014994598438419590e-03,-5.744341829172345398e-03,-3.289118648979379861e-02,8.439359107649853797e+01,4.245164511945232960e-08,1.227825477939205863e-07,-6.435412019272966178e-08,-2.272416143019783037e-07,-1.658173311108779807e-07
3.800000000000000000e+02,3.000000000000000000e+02,3.800000000000002681e-02,-3.629137678640204784e-02,-1.284718226835230084e-03,-8.236303664731502855e-03,-5.893592266303489258e-03,-3.371734936206235989e-02,8.478099718638655702e+01,4.270078455273079748e-08,1.234618553464801249e-07,-6.475002526534890509e-08,-2.286737274104269980e-07,-1.667976502194031426e-07
3.900000000000000000e+02,3.000000000000000000e+02,3.900000000000002770e-02,-3.726208431076168809e-02,-1.312139523740181793e-03,-8.457678148098769083e-03,-6.042280142913467218e-03,-3.453941172863930764e-02,8.515523293263372295e+01,4.292574231940218858e-08,1.240714238054445284e-07,-6.510733121903093935e-08,-2.299616358641562783e-07,-1.676797655791202356e-07
4.000000000000000000e+02,3.000000000000000000e+02,4.000000000000002859e-02,-3.823293695707413731e-02,-1.339479581987067670e-03,-8.679117572860417171e-03,-6.190401013983602360e-03,-3.535737910397830641e-02,8.551669202001926351e+01,4.312749852070922242e-08,1.246172803109059778e-07,-6.542978231828217319e-08,-2.311185176244292093e-07,-1.684723238972192872e-07
4.100000000000000000e+02,3.000000000000000000e+02,4.100000000000002948e-02,-3.920392909060883835e-02,-1.366742127273258556e-03,-8.900621464273483427e-03,-6.337950722836676980e-03,-3.617125735862329605e-02,8.586575625516972821e+01,4.330983201329679741e-08,1.251062128322870137e-07,-6.572037319559656891e-08,-2.321566086107759100e-07,-1.691842213155470060e-07
4.200000000000000000e+02,3.000000000000000000e+02,4.200000000000003036e-02,-4.017505529412342125e-02,-1.393930725434008042e-03,-9.122189348914705453e-03,-6.484925387484952869e-03,-3.698105269745672469e-02,8.620279591950264830e+01,4.347339297047622767e-08,1.255433635448633082e-07,-6.598228864632806753e-08,-2.330871048685331925e-07,-1.698220835930733653e-07
4.300000000000000000e+02,3.000000000000000000e+02,4.300000000000003125e-02,-4.114631035895457284e-02,-1.421048789546198662e-03,-9.343820755034308589e-03,-6.631321387592653202e-03,-3.778677163902308123e-02,8.652817013029653026e+01,4.362070491175789351e-08,1.259339460052258862e-07,-6.621791643982567359e-08,-2.339202175799335871e-07,-1.703940320895591168e-07
4.400000000000000000e+02,3.000000000000000000e+02,4.400000000000003214e-02,-4.211768927648822797e-02,-1.448099586710409640e-03,-9.565515212882284846e-03,-6.777135352026706500e-03,-3.858842099587730251e-02,8.684222719024261039e+01,4.375291541301897342e-08,1.262825390099798102e-07,-6.642990907038994078e-08,-2.346654679822309900e-07,-1.709057732296258466e-07
4.500000000000000000e+02,3.000000000000000000e+02,4.500000000000003303e-02,-4.308918722999298401e-02,-1.475086244525565613e-03,-9.787272255008576394e-03,-6.922364146970484688e-03,-3.938600785591015591e-02,8.714530492583135413e+01,4.387124257110747205e-08,1.265932610903310821e-07,-6.662054115799702990e-08,-2.353314615269682697e-07,-1.713630743828523816e-07
4.600000000000000000e+02,3.000000000000000000e+02,4.600000000000003392e-02,-4.406079958680132747e-02,-1.502011757269865232e-03,-1.000909141653859476e-02,-7.067004864576218771e-03,-4.017953956460448145e-02,8.743773101492050159e+01,4.397703449216555742e-08,1.268698750387806031e-07,-6.679176673025042866e-08,-2.359260872794696956e-07,-1.717717530420246548e-07
4.700000000000000000e+02,3.000000000000000000e+02,4.700000000000003481e-02,-4.503252189082385809e-02,-1.528878991801131031e-03,-1.023097223542541491e-02,-7.211054812132670737e-03,-4.096902370817834954e-02,8.771982330381965198e+01,4.407231407317396534e-08,1.271163488187627494e-07,-6.694565060418918063e-08,-2.364566266557993288e-07,-1.721363716826161986e-07
4.800000000000000000e+02,3.000000000000000000e+02,4.800000000000003569e-02,-4.600434985538229965e-02,-1.555690693189193310e-03,-1.045291425267992277e-02,-7.354511501725560611e-03,-4.175446809757320243e-02,8.799189011421454154e+01,4.415765353988262356e-08,1.273355051990743690e-07,-6.708361920900299879e-08,-2.369294189907001885e-07,-1.724619123048007275e-07
4.900000000000000000e+02,3.000000000000000000e+02,4.900000000000003658e-02,-4.697627935634753060e-02,-1.582449490092386474e-03,-1.067491701258017553e-02,-7.497372640369115784e-03,-4.253588075324674089e-02,8.825423054025831959e+01,4.423437254440300121e-08,1.275303754618014776e-07,-6.720740141027885710e-08,-2.373505528021807346e-07,-1.727519766054427159e-07
5.000000000000000000e+02,3.000000000000000000e+02,5.000000000000003747e-02,-4.794830642556960343e-02,-1.609157899889741882e-03,-1.089698006286113005e-02,-7.639636120587951079e-03,-4.331326989073237821e-02,8.850713473613070903e+01,4.430333534119881475e-08,1.277035702672707828e-07,-6.731842676571981371e-08,-2.377253025894704011e-07,-1.730102440788906606e-07
5.100000000000000000e+02,3.000000000000000000e+02,5.100000000000003836e-02,-4.892042724458709607e-02,-1.635818333579963169e-03,-1.111910295488587920e-02,-7.781300011429362340e-03,-4.408664390692859647e-02,8.875088419437277309e+01,4.436502639727467384e-08,1.278572648107221365e-07,-6.741791495707796656e-08,-2.380585168936320337e-07,-1.732397274925953428e-07
5.200000000000000000e+02,3.000000000000000000e+02,5.200000000000003925e-02,-4.989263813860372876e-02,-1.662433100457797082e-03,-1.134128524379948537e-02,-7.922362549886881322e-03,-4.485601136708339265e-02,8.898575201528798573e+01,4.442037807798630172e-08,1.279935658507786707e-07,-6.750701496361846426e-08,-2.383545848615123590e-07,-1.734440701288335958e-07
5.300000000000000000e+02,3.000000000000000000e+02,5.300000000000004013e-02,-5.086493557072068600e-02,-1.689004412577955767e-03,-1.156352648866641221e-02,-8.062822132716758461e-03,-4.562138099244045231e-02,8.921200316769548522e+01,4.446926963643614721e-08,1.281140871210881272e-07,-6.758687724976063351e-08,-2.386173812098834130e-07,-1.736251464269920829e-07
5.400000000000000000e+02,3.000000000000000000e+02,5.400000000000004102e-02,-5.183731613641349295e-02,-1.715534389016305176e-03,-1.178582625259254855e-02,-8.202677308629793829e-03,-4.638276164851543731e-02,8.942989474131350391e+01,4.451330235895459662e-08,1.282209306902994841e-07,-6.765829223139968333e-08,-2.388504610295937192e-07,-1.737858866145914913e-07
5.500000000000000000e+02,3.000000000000000000e+02,5.500000000000004191e-02,-5.280977655824291295e-02,-1.742025059937602535e-03,-1.200818410283276128e-02,-8.341926770841671251e-03,-4.714016233397201605e-02,8.963967619103662798e+01,4.455248127118953459e-08,1.283153648996563429e-07,-6.772216454446625554e-08,-2.390570489175335210e-07,-1.739283375681938558e-07
5.600000000000000000e+02,3.000000000000000000e+02,5.600000000000004280e-02,-5.378231368078956187e-02,-1.768478370478662699e-03,-1.223059961088484617e-02,-8.480569349965659184e-03,-4.789359217006886049e-02,8.984158957337594131e+01,4.458784850326988630e-08,1.283990270831503417e-07,-6.777932223177388117e-08,-2.392400777061331242e-07,-1.740546087561852093e-07
5.700000000000000000e+02,3.000000000000000000e+02,5.700000000000004369e-02,-5.475492446580260131e-02,-1.794896184455435986e-03,-1.245307235257072515e-02,-8.618604007232251452e-03,-4.864306039065011134e-02,9.003586977530780189e+01,4.461968792728211394e-08,1.284730230494380763e-07,-6.783042847424720584e-08,-2.394020522256875533e-07,-1.741665398253947188e-07
5.800000000000000000e+02,3.000000000000000000e+02,5.800000000000004458e-02,-5.572760598755310824e-02,-1.821280287902094083e-03,-1.267560190810568775e-02,-8.756029828020964537e-03,-4.938857633265311686e-02,9.022274473578141851e+01,4.464800226376468780e-08,1.285382667864323139e-07,-6.787600768771564917e-08,-2.395452840293410524e-07,-1.742654527050265279e-07
5.900000000000000000e+02,3.000000000000000000e+02,5.900000000000004546e-02,-5.670035542838322562e-02,-1.847632392449868270e-03,-1.289818786215644886e-02,-8.892846015690148223e-03,-5.013014942710852101e-02,9.040243566012102860e+01,4.467275209265505417e-08,1.285955827787244662e-07,-6.791670433064867818e-08,-2.396716316474533652e-07,-1.743527292454173633e-07
6.000000000000000000e+02,3.000000000000000000e+02,6.000000000000004635e-02,-5.767317007444252436e-02,-1.873954138553026415e-03,-1.312082980388870959e-02,-9.029051885691315171e-03,-5.086778919060891413e-02,9.057515722755643139e+01,4.469544535869837296e-08,1.286463390846236851e-07,-6.795299583645221680e-08,-2.397832622652724231e-07,-1.744301243547231649e-07
6.100000000000000000e+02,3.000000000000000000e+02,6.100000000000004724e-02,-5.864604731160347889e-02,-1.900247098569037571e-03,-1.334352732700493441e-02,-9.164646859955020639e-03,-5.160150521722341871e-02,9.074111779209867734e+01,4.471559913277859128e-08,1.286910272196480735e-07,-6.798539547508902735e-08,-2.398816904518018062e-07,-1.744980579700639801e-07
6.200000000000000000e+02,3.000000000000000000e+02,6.200000000000004813e-02,-5.961898462154813227e-02,-1.926512779699660971e-03,-1.356628002977297229e-02,-9.299630461535986214e-03,-5.233130717083671335e-02,9.090051957698658214e+01,4.473334641375936087e-08,1.287302142219885658e-07,-6.801430543499584533e-08,-2.399684759327370885e-07,-1.745579600718183165e-07
6.300000000000000000e+02,3.000000000000000000e+02,6.300000000000004208e-02,-6.059197957801853995e-02,-1.952752626799376815e-03,-1.378908751504612923e-02,-9.434002309505614206e-03,-5.305720477789188649e-02,9.105355886290927003e+01,4.474997824538821749e-08,1.287650136165375437e-07,-6.803990613384683171e-08,-2.400448501975278599e-07,-1.746109176258571245e-07
6.400000000000000000e+02,3.000000000000000000e+02,6.400000000000004297e-02,-6.156502984322392152e-02,-1.978968025057293700e-03,-1.401194939027529569e-02,-9.567762114080651664e-03,-5.377920782051769100e-02,9.120042617020511955e+01,4.476424858145652925e-08,1.287953548633966145e-07,-6.806279205554929942e-08,-2.401120953969632879e-07,-1.746570389111871225e-07
6.500000000000000000e+02,3.000000000000000000e+02,6.500000000000004385e-02,-6.253813316439746361e-02,-2.005160302558370040e-03,-1.423486526751362516e-02,-9.700909671977175908e-03,-5.449732613002154086e-02,9.134130643524224524e+01,4.477712736002540712e-08,1.288220163835905091e-07,-6.808304768518113731e-08,-2.401710597211927457e-07,-1.746978278655035080e-07
6.600000000000000000e+02,3.000000000000000000e+02,6.600000000000004474e-02,-6.351128737049652195e-02,-2.031330732729533760e-03,-1.445783476341433275e-02,-9.833444861979666676e-03,-5.521156958073056287e-02,9.147637918116308242e+01,4.478863321368412873e-08,1.288453686991907825e-07,-6.810101672231371236e-08,-2.402228557650108260e-07,-1.747336015975297213e-07
6.700000000000000000e+02,3.000000000000000000e+02,6.700000000000004563e-02,-6.448449036903980414e-02,-2.057480536676010476e-03,-1.468085749922207021e-02,-9.965367640715275255e-03,-5.592194808416391799e-02,9.160581868318101328e+01,4.479871217021420610e-08,1.288657421653570849e-07,-6.811705433736461799e-08,-2.402681830547128690e-07,-1.747650339657990938e-07
6.800000000000000000e+02,3.000000000000000000e+02,6.800000000000004652e-02,-6.545774014307560729e-02,-2.083610885412937909e-03,-1.490393310075832818e-02,-1.009667803862395255e-02,-5.662847158352028731e-02,9.172979412860890136e+01,4.480728750055185136e-08,1.288833600321536476e-07,-6.813120599806161397e-08,-2.403077824651245983e-07,-1.747922843026035186e-07
6.900000000000000000e+02,3.000000000000000000e+02,6.900000000000004741e-02,-6.643103474827542765e-02,-2.109722901997092975e-03,-1.512706119840133596e-02,-1.022737615611544505e-02,-5.733115004846535412e-02,9.184846977178979444e+01,4.481576798995601690e-08,1.288991204356953319e-07,-6.814374747702226114e-08,-2.403425313149085489e-07,-1.748165036989374619e-07
7.000000000000000000e+02,3.000000000000000000e+02,7.000000000000004829e-02,-6.740437230975038219e-02,-2.135817663688267896e-03,-1.535024142694014701e-02,-1.035746215982736446e-02,-5.802999346982016388e-02,9.196200513854370229e+01,4.481792274232737280e-08,1.289173091046311723e-07,-6.813918325265105620e-08,-2.403836504249031109e-07,-1.748371680615197314e-07
7.100000000000000000e+02,3.000000000000000000e+02,7.100000000000004918e-02,-6.837775102095801361e-02,-2.161896203400070181e-03,-1.557347342602615620e-02,-1.048693627943018437e-02,-5.872501185641800653e-02,9.207055495464098271e+01,4.481855343259734739e-08,1.289329385318693457e-07,-6.813435433183207251e-08,-2.404200467670945698e-07,-1.748547777804870459e-07
7.200000000000000000e+02,3.000000000000000000e+02,7.200000000000005007e-02,-6.935116913881474165e-02,-2.187959512285017963e-03,-1.579675683942683914e-02,-1.061579880386089199e-02,-5.941621522847580217e-02,9.217426960628999666e+01,4.482013820408239577e-08,1.289473740587636022e-07,-6.812938044324862510e-08,-2.404525857951258345e-07,-1.748702386109924397e-07
7.300000000000000000e+02,3.000000000000000000e+02,7.300000000000005096e-02,-7.032462498271695173e-02,-2.214008541051035520e-03,-1.602009131544149256e-02,-1.074405007841994567e-02,-6.010361361488287396e-02,9.227329507263301878e+01,4.481972852414268377e-08,1.289593353928339040e-07,-6.812407576700825473e-08,-2.404812339469833307e-07,-1.748834503383046510e-07
7.400000000000000000e+02,3.000000000000000000e+02,7.400000000000005185e-02,-7.129811693187453059e-02,-2.240044201754650376e-03,-1.624347650676359958e-02,-1.087169050168412289e-02,-6.078721704897230987e-02,9.236777310038353050e+01,4.481976647680236195e-08,1.289701975510323565e-07,-6.811872359130150163e-08,-2.405067700346320641e-07,-1.748950987654276923e-07
7.500000000000000000e+02,3.000000000000000000e+02,7.500000000000005274e-02,-7.227164342302819233e-02,-2.266067369429954157e-03,-1.646691207042843413e-02,-1.099872052261405796e-02,-6.146703556480458130e-02,9.245784133458022325e+01,4.482023549892168168e-08,1.289801365675424599e-07,-6.811342560363985860e-08,-2.405295607291006981e-07,-1.749051064638194701e-07
7.600000000000000000e+02,3.000000000000000000e+02,7.600000000000005362e-02,-7.324520294827942257e-02,-2.292078883639336959e-03,-1.669039766776393707e-02,-1.112514063780025743e-02,-6.214307919368398936e-02,9.254363344244920597e+01,4.482021415813663978e-08,1.289887909006130193e-07,-6.810797549139521127e-08,-2.405496682718270937e-07,-1.749136720143506987e-07
7.700000000000000000e+02,3.000000000000000000e+02,7.700000000000005451e-02,-7.421879405300993437e-02,-2.318079549955249109e-03,-1.691393296433919835e-02,-1.125095138883784596e-02,-6.281535796087839296e-02,9.262527923315724365e+01,4.481996131037221248e-08,1.289963846527764915e-07,-6.810237933043653425e-08,-2.405674434669138146e-07,-1.749211896342323363e-07
7.800000000000000000e+02,3.000000000000000000e+02,7.800000000000005540e-02,-7.519241533388551502e-02,-2.344070141376563849e-03,-1.713751762991035099e-02,-1.137615335982390674e-02,-6.348388188253112352e-02,9.270290477377228910e+01,4.481936137490632327e-08,1.290030243186257515e-07,-6.809696219479727426e-08,-2.405833821217964958e-07,-1.749272481464041011e-07
7.900000000000000000e+02,3.000000000000000000e+02,7.900000000000005629e-02,-7.616606543694050269e-02,-2.370051399682559373e-03,-1.736115133836407809e-02,-1.150074717497179266e-02,-6.414866096275576024e-02,9.277663250157121411e+01,4.481824982573981084e-08,1.290087371965334412e-07,-6.809177565150444696e-08,-2.405975630619642961e-07,-1.749319782270162323e-07
8.000000000000000000e+02,3.000000000000000000e+02,8.000000000000005718e-02,-7.713974305573942369e-02,-2.396024036727377720e-03,-1.758483376765895834e-02,-1.162473349633708075e-02,-6.480970519090488435e-02,9.284658133281756420e+01,4.481854664028757720e-08,1.290145080585609557e-07,-6.808675907835580726e-08,-2.406102968597383855e-07,-1.749359661260842767e-07
8.100000000000000000e+02,3.000000000000000000e+02,8.100000000000005806e-02,-7.811344692961261216e-02,-2.421988735677681019e-03,-1.780856459976485132e-02,-1.174811302165004907e-02,-6.546702453900447860e-02,9.291286676811564860e+01,4.481777046260859015e-08,1.290191030549058421e-07,-6.808176251517470030e-08,-2.406215914004330731e-07,-1.749393601746627048e-07
8.200000000000000000e+02,3.000000000000000000e+02,8.200000000000005895e-02,-7.908717584196241213e-02,-2.447946152196088087e-03,-1.803234352060051338e-02,-1.187088648224981884e-02,-6.612062895934596451e-02,9.297560099447137816e+01,4.481677285783202541e-08,1.290231335985862288e-07,-6.807690221297764323e-08,-2.406315960496011085e-07,-1.749419014617761749e-07
8.300000000000000000e+02,3.000000000000000000e+02,8.300000000000005984e-02,-8.006092861863722820e-02,-2.473896915572874628e-03,-1.825617021996961756e-02,-1.199305464111553171e-02,-6.677052838222836961e-02,9.303489298414670827e+01,4.481702467771858309e-08,1.290272585263686577e-07,-6.807215892649844807e-08,-2.406406503672605074e-07,-1.749446180387937647e-07
8.400000000000000000e+02,3.000000000000000000e+02,8.400000000000006073e-02,-8.103470412637044096e-02,-2.499841629808275453e-03,-1.848004439149534411e-02,-1.211461829099012670e-02,-6.741673271384329702e-02,9.309084859042158655e+01,4.481634372958216359e-08,1.290305356428245995e-07,-6.806735219177628259e-08,-2.406485857318926120e-07,-1.749466112312158574e-07
8.500000000000000000e+02,3.000000000000000000e+02,8.500000000000006162e-02,-8.200850127128131439e-02,-2.525780874647640378e-03,-1.870396573255371508e-02,-1.223557825259251330e-02,-6.805925183429598069e-02,9.314357064037145051e+01,4.481600097109997641e-08,1.290334764899550324e-07,-6.806262469594278816e-08,-2.406556918280877569e-07,-1.749490234689973431e-07
8.600000000000000000e+02,3.000000000000000000e+02,8.600000000000006251e-02,-8.298231899743550855e-02,-2.551715206571578826e-03,-1.892793394420578743e-02,-1.235593537291410082e-02,-6.869809559575573710e-02,9.319315902474330926e+01,4.481531741366839849e-08,1.290359768170318977e-07,-6.805816671199334950e-08,-2.406620998145406871e-07,-1.749507253174305711e-07
8.700000000000000000e+02,3.000000000000000000e+02,8.700000000000006339e-02,-8.395615628546249098e-02,-2.577645159743130986e-03,-1.915194873112885735e-02,-1.247569052359585699e-02,-6.933327382072979050e-02,9.323971078503502952e+01,4.481459200017827091e-08,1.290382205405765306e-07,-6.805378026031511964e-08,-2.406677034990154082e-07,-1.749519651179833740e-07
8.800000000000000000e+02,3.000000000000000000e+02,8.800000000000006428e-02,-8.493001215122755743e-02,-2.603571246913907993e-03,-1.937600980154681116e-02,-1.259484459938224957e-02,-6.996479630045442100e-02,9.328332019786496687e+01,4.481411178220784733e-08,1.290402898168064563e-07,-6.804957319208183690e-08,-2.406727889939203708e-07,-1.749530946599728298e-07
8.900000000000000000e+02,3.000000000000000000e+02,8.900000000000006517e-02,-8.590388564455614384e-02,-2.629493960291049044e-03,-1.960011686715971285e-02,-1.271339851664854588e-02,-7.059267279339787038e-02,9.332407885671977965e+01,4.481261959963676531e-08,1.290416716757925540e-07,-6.804546960441359982e-08,-2.406772413935577711e-07,-1.749535200331426774e-07
9.000000000000000000e+02,3.000000000000000000e+02,9.000000000000006606e-02,-8.687777584800816799e-02,-2.655413772366764426e-03,-1.982426964307276371e-02,-1.283135321199818484e-02,-7.121691302386970457e-02,9.336207575117104795e+01,4.481196147541974956e-08,1.290432809993254836e-07,-6.804160542957791210e-08,-2.406813496776543943e-07,-1.749537718003370095e-07
9.100000000000000000e+02,3.000000000000000000e+02,9.100000000000006695e-02,-8.785168187570048526e-02,-2.681331136712145850e-03,-2.004846784772471371e-02,-1.294870964092701554e-02,-7.183752668073148384e-02,9.339739734363081425e+01,4.481113918103872551e-08,1.290447519249305160e-07,-6.803813854386385560e-08,-2.406851662867179602e-07,-1.749528059012369404e-07
9.200000000000000000e+02,3.000000000000000000e+02,9.200000000000006783e-02,-8.882560287217525219e-02,-2.707246488736841320e-03,-2.027271120281582198e-02,-1.306546877655139285e-02,-7.245452341620402248e-02,9.343012764373798973e+01,4.481048390220189123e-08,1.290460061918895685e-07,-6.803456761224108314e-08,-2.406885484681411805e-07,-1.749527665694992039e-07
9.300000000000000000e+02,3.000000000000000000e+02,9.300000000000006872e-02,-8.979953801131240754e-02,-2.733160246416132394e-03,-2.049699943323547366e-02,-1.318163160839724325e-02,-7.306791284476640835e-02,9.346034828044876974e+01,4.480960609764541788e-08,1.290470368063871207e-07,-6.803117734282551014e-08,-2.406916831497999841e-07,-1.749521820000512345e-07
9.400000000000000000e+02,3.000000000000000000e+02,9.400000000000006961e-02,-9.077348649528442504e-02,-2.759072810986864903e-03,-2.072133226698949851e-02,-1.329719914124733414e-02,-7.367770454214275788e-02,9.348813857189959720e+01,4.480832312706234735e-08,1.290477120441035425e-07,-6.802790990724803593e-08,-2.406944336501144169e-07,-1.749517847897917588e-07
9.500000000000000000e+02,3.000000000000000000e+02,9.500000000000007050e-02,-9.174744755355154768e-02,-2.784984567613624402e-03,-2.094570943512728475e-02,-1.341217239404414452e-02,-7.428390804437222383e-02,9.351357559312339163e+01,4.480753355536656185e-08,1.290484887033207601e-07,-6.802473545631154478e-08,-2.406970118280301219e-07,-1.749517323926589023e-07
9.600000000000000000e+02,3.000000000000000000e+02,9.600000000000007139e-02,-9.272142044189590759e-02,-2.810895886026483406e-03,-2.117013067166875762e-02,-1.352655239884580779e-02,-7.488653284695848122e-02,9.353673424167988060e+01,4.480673541847361371e-08,1.290492329968144459e-07,-6.802177676392486038e-08,-2.406994223135511615e-07,-1.749509298430902172e-07
9.700000000000000000e+02,3.000000000000000000e+02,9.700000000000007228e-02,-9.369540444149283831e-02,-2.836807121131579811e-03,-2.139459571353127115e-02,-1.364034019983275878e-02,-7.548558840409493043e-02,9.355768730127377353e+01,4.480662245103113860e-08,1.290501919136050903e-07,-6.801888127876977962e-08,-2.407016211525285401e-07,-1.749500718968891554e-07
9.800000000000000000e+02,3.000000000000000000e+02,9.800000000000007316e-02,-9.466939885801795018e-02,-2.862718613595733458e-03,-2.161910430045648965e-02,-1.375353685236280037e-02,-7.608108412796192599e-02,9.357650550342049200e+01,4.480621533194985295e-08,1.290509679579551622e-07,-6.801624191830565359e-08,-2.407037141490843673e-07,-1.749489551352851734e-07
9.900000000000000000e+02,3.000000000000000000e+02,9.900000000000007405e-02,-9.564340302078840061e-02,-2.888630690406252238e-03,-2.184365617493727943e-02,-1.386614342207240745e-02,-7.667302938809274215e-02,9.359325758722766864e+01,4.480510015057053742e-08,1.290513099643102087e-07,-6.801370336981910850e-08,-2.407055704994544201e-07,-1.749477607983381238e-07
1.000000000000000000e+03,3.000000000000000000e+02,1.000000000000000749e-01,-9.661741628193702691e-02,-2.914543665407018889e-03,-2.206825108214469436e-02,-1.397816098402221950e-02,-7.726143351080497212e-02,9.360801035734958475e+01,4.480426472221860600e-08,1.290517750030986988e-07,-6.801134851850624673e-08,-2.407074251028190192e-07,-1.749460841245101348e-07
