time,temperature,strain_11,strain_22,strain_33,strain_23,strain_13,strain_12,stress_11,stress_22,stress_33,stress_23,stress_13,stress_12
0.000000000000000000e+00,3.000000000000000000e+02,0.000000000000000000e+00,0.000000000000000000e+00,0.000000000000000000e+00,0.000000000000000000e+00,0.000000000000000000e+00,0.000000000000000000e+00,0.000000000000000000e+00,0.000000000000000000e+00,0.000000000000000000e+00,0.000000000000000000e+00,0.000000000000000000e+00,0.000000000000000000e+00
1.000000000000000000e+01,3.000000000000000000e+02,1.000000000000000021e-03,-2.900000000000000017e-04,-2.899999999999999475e-04,0.000000000000000000e+00,0.000000000000000000e+00,0.000000000000000000e+00,2.880000000000000568e+02,-1.421085471520200372e-14,7.105427357601001859e-15,0.000000000000000000e+00,0.000000000000000000e+00,0.000000000000000000e+00
2.000000000000000000e+01,3.000000000000000000e+02,2.000000000000000042e-03,-5.800000000000000034e-04,-5.799999999999998950e-04,0.000000000000000000e+00,0.000000000000000000e+00,0.000000000000000000e+00,5.760000000000001137e+02,-2.842170943040400743e-14,1.421085471520200372e-14,0.000000000000000000e+00,0.000000000000000000e+00,0.000000000000000000e+00
3.000000000000000000e+01,3.000000000000000000e+02,3.000000000000000062e-03,-8.700000000000000051e-04,-8.699999999999998967e-04,0.000000000000000000e+00,0.000000000000000000e+00,0.000000000000000000e+00,8.640000000000000000e+02,-5.684341886080801487e-14,0.000000000000000000e+00,0.000000000000000000e+00,0.000000000000000000e+00,0.000000000000000000e+00
4.000000000000000000e+01,3.000000000000000000e+02,4.000000000000000083e-03,-1.160000000000000007e-03,-1.159999999999999790e-03,0.000000000000000000e+00,0.000000000000000000e+00,0.000000000000000000e+00,1.152000000000000227e+03,-5.684341886080801487e-14,2.842170943040400743e-14,0.000000000000000000e+00,0.000000000000000000e+00,0.000000000000000000e+00
5.000000000000000000e+01,3.000000000000000000e+02,5.000000000000000104e-03,-1.449999999999999900e-03,-1.449999999999999683e-03,0.000000000000000000e+00,0.000000000000000000e+00,0.000000000000000000e+00,1.440000000000000227e+03,0.000000000000000000e+00,5.684341886080801487e-14,0.000000000000000000e+00,0.000000000000000000e+00,0.000000000000000000e+00
6.000000000000000000e+01,3.000000000000000000e+02,6.000000000000000125e-03,-1.739999999999999793e-03,-1.739999999999999577e-03,0.000000000000000000e+00,0.000000000000000000e+00,0.000000000000000000e+00,1.728000000000000000e+03,0.000000000000000000e+00,5.684341886080801487e-14,0.000000000000000000e+00,0.000000000000000000e+00,0.000000000000000000e+00
7.000000000000000000e+01,3.000000000000000000e+02,7.000000000000000146e-03,-2.029999999999999687e-03,-2.029999999999999687e-03,0.000000000000000000e+00,0.000000000000000000e+00,0.000000000000000000e+00,2.016000000000000455e+03,0.000000000000000000e+00,0.000000000000000000e+00,0.000000000000000000e+00,0.000000000000000000e+00,0.000000000000000000e+00
8.000000000000000000e+01,3.000000000000000000e+02,8.000000000000000167e-03,-2.319999999999999580e-03,-2.319999999999999580e-03,0.000000000000000000e+00,0.000000000000000000e+00,0.000000000000000000e+00,2.304000000000000909e+03,1.136868377216160297e-13,1.136868377216160297e-13,0.000000000000000000e+00,0.000000000000000000e+00,0.000000000000000000e+00
9.000000000000000000e+01,3.000000000000000000e+02,9.000000000000001055e-03,-2.609999999999999473e-03,-2.609999999999999473e-03,0.000000000000000000e+00,0.000000000000000000e+00,0.000000000000000000e+00,2.592000000000000455e+03,3.410605131648480892e-13,3.410605131648480892e-13,0.000000000000000000e+00,0.000000000000000000e+00,0.000000000000000000e+00
1.000000000000000000e+02,3.000000000000000000e+02,1.000000000000000194e-02,-2.899999999999999366e-03,-2.899999999999999366e-03,0.000000000000000000e+00,0.000000000000000000e+00,0.000000000000000000e+00,2.880000000000000909e+03,4.547473508864641190e-13,4.547473508864641190e-13,0.000000000000000000e+00,0.000000000000000000e+00,0.000000000000000000e+00
1.100000000000000000e+02,3.000000000000000000e+02,1.100000000000000283e-02,-3.189999999999999260e-03,-3.189999999999999260e-03,0.000000000000000000e+00,0.000000000000000000e+00,0.000000000000000000e+00,3.168000000000001819e+03,6.821210263296961784e-13,7.389644451905041933e-13,0.000000000000000000e+00,0.000000000000000000e+00,0.000000000000000000e+00
1.200000000000000000e+02,3.000000000000000000e+02,1.200000000000000372e-02,-3.479999999999999153e-03,-3.479999999999999153e-03,0.000000000000000000e+00,0.000000000000000000e+00,0.000000000000000000e+00,3.456000000000001819e+03,4.547473508864641190e-13,5.684341886080801487e-13,0.000000000000000000e+00,0.000000000000000000e+00,0.000000000000000000e+00
1.300000000000000000e+02,3.000000000000000000e+02,1.300000000000000461e-02,-3.769999999999999046e-03,-3.769999999999999046e-03,0.000000000000000000e+00,0.000000000000000000e+00,0.000000000000000000e+00,3.744000000000001819e+03,9.094947017729282379e-13,9.094947017729282379e-13,0.000000000000000000e+00,0.000000000000000000e+00,0.000000000000000000e+00
1.400000000000000000e+02,3.000000000000000000e+02,1.400000000000000550e-02,-4.059999999999999373e-03,-4.059999999999999373e-03,0.000000000000000000e+00,0.000000000000000000e+00,0.000000000000000000e+00,4.032000000000002728e+03,9.094947017729282379e-13,9.094947017729282379e-13,0.000000000000000000e+00,0.000000000000000000e+00,0.000000000000000000e+00
1.500000000000000000e+02,3.000000000000000000e+02,1.500000000000000638e-02,-4.349999999999999700e-03,-4.349999999999999700e-03,0.000000000000000000e+00,0.000000000000000000e+00,0.000000000000000000e+00,4.320000000000003638e+03,6.821210263296961784e-13,7.958078640513122082e-13,0.000000000000000000e+00,0.000000000000000000e+00,0.000000000000000000e+00
1.600000000000000000e+02,3.000000000000000000e+02,1.600000000000000727e-02,-4.640000000000000027e-03,-4.640000000000000027e-03,0.000000000000000000e+00,0.000000000000000000e+00,0.000000000000000000e+00,4.608000000000001819e+03,6.821210263296961784e-13,5.684341886080801487e-13,0.000000000000000000e+00,0.000000000000000000e+00,0.000000000000000000e+00
1.700000000000000000e+02,3.000000000000000000e+02,1.700000000000000816e-02,-4.930000000000000354e-03,-4.930000000000000354e-03,0.000000000000000000e+00,0.000000000000000000e+00,0.000000000000000000e+00,4.896000000000002728e+03,6.821210263296961784e-13,7.958078640513122082e-13,0.000000000000000000e+00,0.000000000000000000e+00,0.000000000000000000e+00
1.800000000000000000e+02,3.000000000000000000e+02,1.800000000000000905e-02,-5.220000000000000681e-03,-5.220000000000000681e-03,0.000000000000000000e+00,0.000000000000000000e+00,0.000000000000000000e+00,5.184000000000003638e+03,6.821210263296961784e-13,5.684341886080801487e-13,0.000000000000000000e+00,0.000000000000000000e+00,0.000000000000000000e+00
1.900000000000000000e+02,3.000000000000000000e+02,1.900000000000000994e-02,-5.510000000000001008e-03,-5.510000000000001008e-03,0.000000000000000000e+00,0.000000000000000000e+00,0.000000000000000000e+00,5.472000000000004547e+03,9.094947017729282379e-13,6.821210263296961784e-13,0.000000000000000000e+00,0.000000000000000000e+00,0.000000000000000000e+00
2.000000000000000000e+02,3.000000000000000000e+02,2.000000000000001082e-02,-5.800000000000001335e-03,-5.800000000000001335e-03,0.000000000000000000e+00,0.000000000000000000e+00,0.000000000000000000e+00,5.760000000000003638e+03,9.094947017729282379e-13,9.094947017729282379e-13,0.000000000000000000e+00,0.000000000000000000e+00,0.000000000000000000e+00
2.100000000000000000e+02,3.000000000000000000e+02,2.100000000000001171e-02,-6.090000000000001662e-03,-6.090000000000001662e-03,0.000000000000000000e+00,0.000000000000000000e+00,0.000000000000000000e+00,6.048000000000003638e+03,9.094947017729282379e-13,6.821210263296961784e-13,0.000000000000000000e+00,0.000000000000000000e+00,0.000000000000000000e+00
2.200000000000000000e+02,3.000000000000000000e+02,2.200000000000001260e-02,-6.380000000000001989e-03,-6.380000000000001989e-03,0.000000000000000000e+00,0.000000000000000000e+00,0.000000000000000000e+00,6.336000000000003638e+03,4.547473508864641190e-13,4.547473508864641190e-13,0.000000000000000000e+00,0.000000000000000000e+00,0.000000000000000000e+00
2.300000000000000000e+02,3.000000000000000000e+02,2.300000000000001349e-02,-6.670000000000002316e-03,-6.670000000000002316e-03,0.000000000000000000e+00,0.000000000000000000e+00,0.000000000000000000e+00,6.624000000000005457e+03,0.000000000000000000e+00,2.273736754432320595e-13,0.000000000000000000e+00,0.000000000000000000e+00,0.000000000000000000e+00
2.400000000000000000e+02,3.000000000000000000e+02,2.400000000000001438e-02,-6.960000000000002643e-03,-6.960000000000002643e-03,0.000000000000000000e+00,0.000000000000000000e+00,0.000000000000000000e+00,6.912000000000005457e+03,4.547473508864641190e-13,4.547473508864641190e-13,0.000000000000000000e+00,0.000000000000000000e+00,0.000000000000000000e+00
2.500000000000000000e+02,3.000000000000000000e+02,2.500000000000001527e-02,-7.250000000000002970e-03,-7.250000000000002970e-03,0.000000000000000000e+00,0.000000000000000000e+00,0.000000000000000000e+00,7.200000000000003638e+03,4.547473508864641190e-13,4.547473508864641190e-13,0.000000000000000000e+00,0.000000000000000000e+00,0.000000000000000000e+00
2.600000000000000000e+02,3.000000000000000000e+02,2.600000000000001615e-02,-7.540000000000003297e-03,-7.540000000000003297e-03,0.000000000000000000e+00,0.000000000000000000e+00,0.000000000000000000e+00,7.488000000000006366e+03,4.547473508864641190e-13,2.273736754432320595e-13,0.000000000000000000e+00,0.000000000000000000e+00,0.000000000000000000e+00
2.700000000000000000e+02,3.000000000000000000e+02,2.700000000000001704e-02,-7.830000000000003624e-03,-7.830000000000003624e-03,0.000000000000000000e+00,0.000000000000000000e+00,0.000000000000000000e+00,7.776000000000005457e+03,0.000000000000000000e+00,0.000000000000000000e+00,0.000000000000000000e+00,0.000000000000000000e+00,0.000000000000000000e+00
2.800000000000000000e+02,3.000000000000000000e+02,2.800000000000001793e-02,-8.120000000000003951e-03,-8.120000000000003951e-03,0.000000000000000000e+00,0.000000000000000000e+00,0.000000000000000000e+00,8.064000000000004547e+03,4.547473508864641190e-13,2.273736754432320595e-13,0.000000000000000000e+00,0.000000000000000000e+00,0.000000000000000000e+00
2.900000000000000000e+02,3.000000000000000000e+02,2.900000000000001882e-02,-8.410000000000004278e-03,-8.410000000000004278e-03,0.000000000000000000e+00,0.000000000000000000e+00,0.000000000000000000e+00,8.352000000000007276e+03,4.547473508864641190e-13,4.547473508864641190e-13,0.000000000000000000e+00,0.000000000000000000e+00,0.000000000000000000e+00
3.000000000000000000e+02,3.000000000000000000e+02,3.000000000000001971e-02,-8.700000000000004605e-03,-8.700000000000004605e-03,0.000000000000000000e+00,0.000000000000000000e+00,0.000000000000000000e+00,8.640000000000005457e+03,-4.547473508864641190e-13,-2.273736754432320595e-13,0.000000000000000000e+00,0.000000000000000000e+00,0.000000000000000000e+00
3.100000000000000000e+02,3.000000000000000000e+02,3.100000000000002059e-02,-8.990000000000004932e-03,-8.990000000000004932e-03,0.000000000000000000e+00,0.000000000000000000e+00,0.000000000000000000e+00,8.928000000000003638e+03,0.000000000000000000e+00,0.000000000000000000e+00,0.000000000000000000e+00,0.000000000000000000e+00,0.000000000000000000e+00
3.200000000000000000e+02,3.000000000000000000e+02,3.200000000000002148e-02,-9.280000000000005259e-03,-9.280000000000005259e-03,0.000000000000000000e+00,0.000000000000000000e+00,0.000000000000000000e+00,9.216000000000007276e+03,4.547473508864641190e-13,2.273736754432320595e-13,0.000000000000000000e+00,0.000000000000000000e+00,0.000000000000000000e+00
3.300000000000000000e+02,3.000000000000000000e+02,3.300000000000002237e-02,-9.570000000000005586e-03,-9.570000000000005586e-03,0.000000000000000000e+00,0.000000000000000000e+00,0.000000000000000000e+00,9.504000000000005457e+03,0.000000000000000000e+00,-2.273736754432320595e-13,0.000000000000000000e+00,0.000000000000000000e+00,0.000000000000000000e+00
3.400000000000000000e+02,3.000000000000000000e+02,3.400000000000002326e-02,-9.860000000000005912e-03,-9.860000000000005912e-03,0.000000000000000000e+00,0.000000000000000000e+00,0.000000000000000000e+00,9.792000000000009095e+03,0.000000000000000000e+00,0.000000000000000000e+00,0.000000000000000000e+00,0.000000000000000000e+00,0.000000000000000000e+00
3.500000000000000000e+02,3.000000000000000000e+02,3.500000000000002415e-02,-1.015000000000000624e-02,-1.015000000000000624e-02,0.000000000000000000e+00,0.000000000000000000e+00,0.000000000000000000e+00,1.008000000000000728e+04,-9.094947017729282379e-13,-6.821210263296961784e-13,0.000000000000000000e+00,0.000000000000000000e+00,0.000000000000000000e+00
3.600000000000000000e+02,3.000000000000000000e+02,3.600000000000002504e-02,-1.044000000000000657e-02,-1.044000000000000657e-02,0.000000000000000000e+00,0.000000000000000000e+00,0.000000000000000000e+00,1.036800000000000728e+04,-4.547473508864641190e-13,-4.547473508864641190e-13,0.000000000000000000e+00,0.000000000000000000e+00,0.000000000000000000e+00
3.700000000000000000e+02,3.000000000000000000e+02,3.700000000000002592e-02,-1.073000000000000689e-02,-1.073000000000000689e-02,0.000000000000000000e+00,0.000000000000000000e+00,0.000000000000000000e+00,1.065600000000000909e+04,0.000000000000000000e+00,-2.273736754432320595e-13,0.000000000000000000e+00,0.000000000000000000e+00,0.000000000000000000e+00
3.800000000000000000e+02,3.000000000000000000e+02,3.800000000000002681e-02,-1.102000000000000722e-02,-1.102000000000000722e-02,0.000000000000000000e+00,0.000000000000000000e+00,0.000000000000000000e+00,1.094400000000000728e+04,-9.094947017729282379e-13,-1.364242052659392357e-12,0.000000000000000000e+00,0.000000000000000000e+00,0.000000000000000000e+00
3.900000000000000000e+02,3.000000000000000000e+02,3.900000000000002770e-02,-1.131000000000000755e-02,-1.131000000000000755e-02,0.000000000000000000e+00,0.000000000000000000e+00,0.000000000000000000e+00,1.123200000000000909e+04,-9.094947017729282379e-13,-6.821210263296961784e-13,0.000000000000000000e+00,0.000000000000000000e+00,0.000000000000000000e+00
4.000000000000000000e+02,3.000000000000000000e+02,4.000000000000002859e-02,-1.160000000000000787e-02,-1.160000000000000787e-02,0.000000000000000000e+00,0.000000000000000000e+00,0.000000000000000000e+00,1.152000000000000909e+04,-9.094947017729282379e-13,-9.094947017729282379e-13,0.000000000000000000e+00,0.000000000000000000e+00,0.000000000000000000e+00
4.100000000000000000e+02,3.000000000000000000e+02,4.100000000000002948e-02,-1.189000000000000820e-02,-1.189000000000000820e-02,0.000000000000000000e+00,0.000000000000000000e+00,0.000000000000000000e+00,1.180800000000000728e+04,-9.094947017729282379e-13,-9.094947017729282379e-13,0.000000000000000000e+00,0.000000000000000000e+00,0.000000000000000000e+00
4.200000000000000000e+02,3.000000000000000000e+02,4.200000000000003036e-02,-1.218000000000000853e-02,-1.218000000000000853e-02,0.000000000000000000e+00,0.000000000000000000e+00,0.000000000000000000e+00,1.209600000000000909e+04,-9.094947017729282379e-13,-1.136868377216160297e-12,0.000000000000000000e+00,0.000000000000000000e+00,0.000000000000000000e+00
4.300000000000000000e+02,3.000000000000000000e+02,4.300000000000003125e-02,-1.247000000000000886e-02,-1.247000000000000886e-02,0.000000000000000000e+00,0.000000000000000000e+00,0.000000000000000000e+00,1.238400000000000909e+04,0.000000000000000000e+00,-4.547473508864641190e-13,0.000000000000000000e+00,0.000000000000000000e+00,0.000000000000000000e+00
4.400000000000000000e+02,3.000000000000000000e+02,4.400000000000003214e-02,-1.276000000000000918e-02,-1.276000000000000918e-02,0.000000000000000000e+00,0.000000000000000000e+00,0.000000000000000000e+00,1.267200000000001091e+04,-1.818989403545856476e-12,-1.591615728102624416e-12,0.000000000000000000e+00,0.000000000000000000e+00,0.000000000000000000e+00
4.500000000000000000e+02,3.000000000000000000e+02,4.500000000000003303e-02,-1.305000000000000951e-02,-1.305000000000000951e-02,0.000000000000000000e+00,0.000000000000000000e+00,0.000000000000000000e+00,1.296000000000001091e+04,-9.094947017729282379e-13,-9.094947017729282379e-13,0.000000000000000000e+00,0.000000000000000000e+00,0.000000000000000000e+00
4.600000000000000000e+02,3.000000000000000000e+02,4.600000000000003392e-02,-1.334000000000000984e-02,-1.334000000000000984e-02,0.000000000000000000e+00,0.000000000000000000e+00,0.000000000000000000e+00,1.324800000000000728e+04,-9.094947017729282379e-13,-9.094947017729282379e-13,0.000000000000000000e+00,0.000000000000000000e+00,0.000000000000000000e+00
4.700000000000000000e+02,3.000000000000000000e+02,4.700000000000003481e-02,-1.363000000000001016e-02,-1.363000000000001016e-02,0.000000000000000000e+00,0.000000000000000000e+00,0.000000000000000000e+00,1.353600000000001091e+04,-1.818989403545856476e-12,-1.364242052659392357e-12,0.000000000000000000e+00,0.000000000000000000e+00,0.000000000000000000e+00
4.800000000000000000e+02,3.000000000000000000e+02,4.800000000000003569e-02,-1.392000000000001049e-02,-1.392000000000001049e-02,0.000000000000000000e+00,0.000000000000000000e+00,0.000000000000000000e+00,1.382400000000001091e+04,-1.818989403545856476e-12,-1.364242052659392357e-12,0.000000000000000000e+00,0.000000000000000000e+00,0.000000000000000000e+00
4.900000000000000000e+02,3.000000000000000000e+02,4.900000000000003658e-02,-1.421000000000001082e-02,-1.421000000000001082e-02,0.000000000000000000e+00,0.000000000000000000e+00,0.000000000000000000e+00,1.411200000000001091e+04,-9.094947017729282379e-13,-9.094947017729282379e-13,0.000000000000000000e+00,0.000000000000000000e+00,0.000000000000000000e+00
5.000000000000000000e+02,3.000000000000000000e+02,5.000000000000003747e-02,-1.450000000000001114e-02,-1.450000000000001114e-02,0.000000000000000000e+00,0.000000000000000000e+00,0.000000000000000000e+00,1.440000000000001091e+04,-9.094947017729282379e-13,-9.094947017729282379e-13,0.000000000000000000e+00,0.000000000000000000e+00,0.000000000000000000e+00
5.100000000000000000e+02,3.000000000000000000e+02,5.100000000000003836e-02,-1.479000000000001147e-02,-1.479000000000001147e-02,0.000000000000000000e+00,0.000000000000000000e+00,0.000000000000000000e+00,1.468800000000001091e+04,-1.818989403545856476e-12,-1.364242052659392357e-12,0.000000000000000000e+00,0.000000000000000000e+00,0.000000000000000000e+00
5.200000000000000000e+02,3.000000000000000000e+02,5.200000000000003925e-02,-1.508000000000001180e-02,-1.508000000000001180e-02,0.000000000000000000e+00,0.000000000000000000e+00,0.000000000000000000e+00,1.497600000000000909e+04,-9.094947017729282379e-13,-1.364242052659392357e-12,0.000000000000000000e+00,0.000000000000000000e+00,0.000000000000000000e+00
5.300000000000000000e+02,3.000000000000000000e+02,5.300000000000004013e-02,-1.537000000000001212e-02,-1.537000000000001212e-02,0.000000000000000000e+00,0.000000000000000000e+00,0.000000000000000000e+00,1.526400000000001273e+04,-9.094947017729282379e-13,-1.364242052659392357e-12,0.000000000000000000e+00,0.000000000000000000e+00,0.000000000000000000e+00
5.400000000000000000e+02,3.000000000000000000e+02,5.400000000000004102e-02,-1.566000000000001072e-02,-1.566000000000001072e-02,0.000000000000000000e+00,0.000000000000000000e+00,0.000000000000000000e+00,1.555200000000001455e+04,0.000000000000000000e+00,-4.547473508864641190e-13,0.000000000000000000e+00,0.000000000000000000e+00,0.000000000000000000e+00
5.500000000000000000e+02,3.000000000000000000e+02,5.500000000000004191e-02,-1.595000000000000931e-02,-1.595000000000000931e-02,0.000000000000000000e+00,0.000000000000000000e+00,0.000000000000000000e+00,1.584000000000001091e+04,-9.094947017729282379e-13,-4.547473508864641190e-13,0.000000000000000000e+00,0.000000000000000000e+00,0.000000000000000000e+00
5.600000000000000000e+02,3.000000000000000000e+02,5.600000000000004280e-02,-1.624000000000000790e-02,-1.624000000000000790e-02,0.000000000000000000e+00,0.000000000000000000e+00,0.000000000000000000e+00,1.612800000000001273e+04,2.728484105318784714e-12,2.273736754432320595e-12,0.000000000000000000e+00,0.000000000000000000e+00,0.000000000000000000e+00
5.700000000000000000e+02,3.000000000000000000e+02,5.700000000000004369e-02,-1.653000000000000649e-02,-1.653000000000000649e-02,0.000000000000000000e+00,0.000000000000000000e+00,0.000000000000000000e+00,1.641600000000001819e+04,1.818989403545856476e-12,2.273736754432320595e-12,0.000000000000000000e+00,0.000000000000000000e+00,0.000000000000000000e+00
5.800000000000000000e+02,3.000000000000000000e+02,5.800000000000004458e-02,-1.682000000000000509e-02,-1.682000000000000509e-02,0.000000000000000000e+00,0.000000000000000000e+00,0.000000000000000000e+00,1.670400000000001455e+04,2.728484105318784714e-12,2.273736754432320595e-12,0.000000000000000000e+00,0.000000000000000000e+00,0.000000000000000000e+00
5.900000000000000000e+02,3.000000000000000000e+02,5.900000000000004546e-02,-1.711000000000000368e-02,-1.711000000000000368e-02,0.000000000000000000e+00,0.000000000000000000e+00,0.000000000000000000e+00,1.699200000000001455e+04,1.818989403545856476e-12,2.273736754432320595e-12,0.000000000000000000e+00,0.000000000000000000e+00,0.000000000000000000e+00
6.000000000000000000e+02,3.000000000000000000e+02,6.000000000000004635e-02,-1.740000000000000227e-02,-1.740000000000000227e-02,0.000000000000000000e+00,0.000000000000000000e+00,0.000000000000000000e+00,1.728000000000001455e+04,5.456968210637569427e-12,5.456968210637569427e-12,0.000000000000000000e+00,0.000000000000000000e+00,0.000000000000000000e+00
6.100000000000000000e+02,3.000000000000000000e+02,6.100000000000004724e-02,-1.769000000000000086e-02,-1.769000000000000086e-02,0.000000000000000000e+00,0.000000000000000000e+00,0.000000000000000000e+00,1.756800000000002183e+04,5.456968210637569427e-12,5.456968210637569427e-12,0.000000000000000000e+00,0.000000000000000000e+00,0.000000000000000000e+00
6.200000000000000000e+02,3.000000000000000000e+02,6.200000000000004813e-02,-1.797999999999999945e-02,-1.797999999999999945e-02,0.000000000000000000e+00,0.000000000000000000e+00,0.000000000000000000e+00,1.785600000000001819e+04,5.456968210637569427e-12,5.456968210637569427e-12,0.000000000000000000e+00,0.000000000000000000e+00,0.000000000000000000e+00
6.300000000000000000e+02,3.000000000000000000e+02,6.300000000000004208e-02,-1.826999999999999805e-02,-1.826999999999999805e-02,0.000000000000000000e+00,0.000000000000000000e+00,0.000000000000000000e+00,1.814400000000001455e+04,5.456968210637569427e-12,5.456968210637569427e-12,0.000000000000000000e+00,0.000000000000000000e+00,0.000000000000000000e+00
6.400000000000000000e+02,3.000000000000000000e+02,6.400000000000004297e-02,-1.855999999999999664e-02,-1.855999999999999664e-02,0.000000000000000000e+00,0.000000000000000000e+00,0.000000000000000000e+00,1.843200000000002183e+04,8.185452315956354141e-12,8.185452315956354141e-12,0.000000000000000000e+00,0.000000000000000000e+00,0.000000000000000000e+00
6.500000000000000000e+02,3.000000000000000000e+02,6.500000000000004385e-02,-1.884999999999999523e-02,-1.884999999999999523e-02,0.000000000000000000e+00,0.000000000000000000e+00,0.000000000000000000e+00,1.872000000000002183e+04,8.185452315956354141e-12,8.185452315956354141e-12,0.000000000000000000e+00,0.000000000000000000e+00,0.000000000000000000e+00
6.600000000000000000e+02,3.000000000000000000e+02,6.600000000000004474e-02,-1.913999999999999382e-02,-1.913999999999999382e-02,0.000000000000000000e+00,0.000000000000000000e+00,0.000000000000000000e+00,1.900800000000001819e+04,8.185452315956354141e-12,8.185452315956354141e-12,0.000000000000000000e+00,0.000000000000000000e+00,0.000000000000000000e+00
6.700000000000000000e+02,3.000000000000000000e+02,6.700000000000004563e-02,-1.942999999999999242e-02,-1.942999999999999242e-02,0.000000000000000000e+00,0.000000000000000000e+00,0.000000000000000000e+00,1.929600000000001819e+04,9.094947017729282379e-12,8.640199666842818260e-12,0.000000000000000000e+00,0.000000000000000000e+00,0.000000000000000000e+00
6.800000000000000000e+02,3.000000000000000000e+02,6.800000000000004652e-02,-1.971999999999999101e-02,-1.971999999999999101e-02,0.000000000000000000e+00,0.000000000000000000e+00,0.000000000000000000e+00,1.958400000000002547e+04,1.000444171950221062e-11,1.045918907038867474e-11,0.000000000000000000e+00,0.000000000000000000e+00,0.000000000000000000e+00
6.900000000000000000e+02,3.000000000000000000e+02,6.900000000000004741e-02,-2.000999999999998960e-02,-2.000999999999998960e-02,0.000000000000000000e+00,0.000000000000000000e+00,0.000000000000000000e+00,1.987200000000002183e+04,1.182343112304806709e-11,1.136868377216160297e-11,0.000000000000000000e+00,0.000000000000000000e+00,0.000000000000000000e+00
7.000000000000000000e+02,3.000000000000000000e+02,7.000000000000004829e-02,-2.029999999999998819e-02,-2.029999999999998819e-02,0.000000000000000000e+00,0.000000000000000000e+00,0.000000000000000000e+00,2.016000000000002183e+04,1.091393642127513885e-11,1.136868377216160297e-11,0.000000000000000000e+00,0.000000000000000000e+00,0.000000000000000000e+00
7.100000000000000000e+02,3.000000000000000000e+02,7.100000000000004918e-02,-2.058999999999998679e-02,-2.058999999999998679e-02,0.000000000000000000e+00,0.000000000000000000e+00,0.000000000000000000e+00,2.044800000000002183e+04,1.364242052659392357e-11,1.318767317570745945e-11,0.000000000000000000e+00,0.000000000000000000e+00,0.000000000000000000e+00
7.200000000000000000e+02,3.000000000000000000e+02,7.200000000000005007e-02,-2.087999999999998538e-02,-2.087999999999998538e-02,0.000000000000000000e+00,0.000000000000000000e+00,0.000000000000000000e+00,2.073600000000002547e+04,1.273292582482099533e-11,1.318767317570745945e-11,0.000000000000000000e+00,0.000000000000000000e+00,0.000000000000000000e+00
7.300000000000000000e+02,3.000000000000000000e+02,7.300000000000005096e-02,-2.116999999999998397e-02,-2.116999999999998397e-02,0.000000000000000000e+00,0.000000000000000000e+00,0.000000000000000000e+00,2.102400000000002547e+04,1.455191522836685181e-11,1.455191522836685181e-11,0.000000000000000000e+00,0.000000000000000000e+00,0.000000000000000000e+00
7.400000000000000000e+02,3.000000000000000000e+02,7.400000000000005185e-02,-2.145999999999998256e-02,-2.145999999999998256e-02,0.000000000000000000e+00,0.000000000000000000e+00,0.000000000000000000e+00,2.131200000000002547e+04,1.637090463191270828e-11,1.637090463191270828e-11,0.000000000000000000e+00,0.000000000000000000e+00,0.000000000000000000e+00
7.500000000000000000e+02,3.000000000000000000e+02,7.500000000000005274e-02,-2.174999999999998115e-02,-2.174999999999998115e-02,0.000000000000000000e+00,0.000000000000000000e+00,0.000000000000000000e+00,2.160000000000002183e+04,1.637090463191270828e-11,1.637090463191270828e-11,0.000000000000000000e+00,0.000000000000000000e+00,0.000000000000000000e+00
7.600000000000000000e+02,3.000000000000000000e+02,7.600000000000005362e-02,-2.203999999999997975e-02,-2.203999999999997975e-02,0.000000000000000000e+00,0.000000000000000000e+00,0.000000000000000000e+00,2.188800000000002910e+04,1.637090463191270828e-11,1.728039933368563652e-11,0.000000000000000000e+00,0.000000000000000000e+00,0.000000000000000000e+00
7.700000000000000000e+02,3.000000000000000000e+02,7.700000000000005451e-02,-2.232999999999997834e-02,-2.232999999999997834e-02,0.000000000000000000e+00,0.000000000000000000e+00,0.000000000000000000e+00,2.217600000000002910e+04,1.818989403545856476e-11,1.818989403545856476e-11,0.000000000000000000e+00,0.000000000000000000e+00,0.000000000000000000e+00
7.800000000000000000e+02,3.000000000000000000e+02,7.800000000000005540e-02,-2.261999999999997693e-02,-2.261999999999997693e-02,0.000000000000000000e+00,0.000000000000000000e+00,0.000000000000000000e+00,2.246400000000002547e+04,1.818989403545856476e-11,1.909938873723149300e-11,0.000000000000000000e+00,0.000000000000000000e+00,0.000000000000000000e+00
7.900000000000000000e+02,3.000000000000000000e+02,7.900000000000005629e-02,-2.290999999999997552e-02,-2.290999999999997552e-02,0.000000000000000000e+00,0.000000000000000000e+00,0.000000000000000000e+00,2.275200000000002910e+04,1.818989403545856476e-11,1.818989403545856476e-11,0.000000000000000000e+00,0.000000000000000000e+00,0.000000000000000000e+00
8.000000000000000000e+02,3.000000000000000000e+02,8.000000000000005718e-02,-2.319999999999997412e-02,-2.319999999999997412e-02,0.000000000000000000e+00,0.000000000000000000e+00,0.000000000000000000e+00,2.304000000000003274e+04,2.182787284255027771e-11,2.137312549166381359e-11,0.000000000000000000e+00,0.000000000000000000e+00,0.000000000000000000e+00
8.100000000000000000e+02,3.000000000000000000e+02,8.100000000000005806e-02,-2.348999999999997271e-02,-2.348999999999997271e-02,0.000000000000000000e+00,0.000000000000000000e+00,0.000000000000000000e+00,2.332800000000002910e+04,2.182787284255027771e-11,2.228262019343674183e-11,0.000000000000000000e+00,0.000000000000000000e+00,0.000000000000000000e+00
8.200000000000000000e+02,3.000000000000000000e+02,8.200000000000005895e-02,-2.377999999999997130e-02,-2.377999999999997130e-02,0.000000000000000000e+00,0.000000000000000000e+00,0.000000000000000000e+00,2.361600000000002910e+04,2.182787284255027771e-11,2.137312549166381359e-11,0.000000000000000000e+00,0.000000000000000000e+00,0.000000000000000000e+00
8.300000000000000000e+02,3.000000000000000000e+02,8.300000000000005984e-02,-2.406999999999996989e-02,-2.406999999999996989e-02,0.000000000000000000e+00,0.000000000000000000e+00,0.000000000000000000e+00,2.390400000000003638e+04,2.364686224609613419e-11,2.410160959698259830e-11,0.000000000000000000e+00,0.000000000000000000e+00,0.000000000000000000e+00
8.400000000000000000e+02,3.000000000000000000e+02,8.400000000000006073e-02,-2.435999999999996848e-02,-2.435999999999996848e-02,0.000000000000000000e+00,0.000000000000000000e+00,0.000000000000000000e+00,2.419200000000003274e+04,2.546585164964199066e-11,2.501110429875552654e-11,0.000000000000000000e+00,0.000000000000000000e+00,0.000000000000000000e+00
8.500000000000000000e+02,3.000000000000000000e+02,8.500000000000006162e-02,-2.464999999999996708e-02,-2.464999999999996708e-02,0.000000000000000000e+00,0.000000000000000000e+00,0.000000000000000000e+00,2.448000000000003274e+04,2.364686224609613419e-11,2.410160959698259830e-11,0.000000000000000000e+00,0.000000000000000000e+00,0.000000000000000000e+00
8.600000000000000000e+02,3.000000000000000000e+02,8.600000000000006251e-02,-2.493999999999996567e-02,-2.493999999999996567e-02,0.000000000000000000e+00,0.000000000000000000e+00,0.000000000000000000e+00,2.476800000000003274e+04,2.728484105318784714e-11,2.683009370230138302e-11,0.000000000000000000e+00,0.000000000000000000e+00,0.000000000000000000e+00
8.700000000000000000e+02,3.000000000000000000e+02,8.700000000000006339e-02,-2.522999999999996426e-02,-2.522999999999996426e-02,0.000000000000000000e+00,0.000000000000000000e+00,0.000000000000000000e+00,2.505600000000003638e+04,2.728484105318784714e-11,2.637534635141491890e-11,0.000000000000000000e+00,0.000000000000000000e+00,0.000000000000000000e+00
8.800000000000000000e+02,3.000000000000000000e+02,8.800000000000006428e-02,-2.551999999999996285e-02,-2.551999999999996285e-02,0.000000000000000000e+00,0.000000000000000000e+00,0.000000000000000000e+00,2.534400000000003638e+04,2.728484105318784714e-11,2.728484105318784714e-11,0.000000000000000000e+00,0.000000000000000000e+00,0.000000000000000000e+00
8.900000000000000000e+02,3.000000000000000000e+02,8.900000000000006517e-02,-2.580999999999996145e-02,-2.580999999999996145e-02,0.000000000000000000e+00,0.000000000000000000e+00,0.000000000000000000e+00,2.563200000000003638e+04,3.092281986027956009e-11,3.001332515850663185e-11,0.000000000000000000e+00,0.000000000000000000e+00,0.000000000000000000e+00
9.000000000000000000e+02,3.000000000000000000e+02,9.000000000000006606e-02,-2.609999999999996004e-02,-2.609999999999996004e-02,0.000000000000000000e+00,0.000000000000000000e+00,0.000000000000000000e+00,2.592000000000003638e+04,2.910383045673370361e-11,2.910383045673370361e-11,0.000000000000000000e+00,0.000000000000000000e+00,0.000000000000000000e+00
9.100000000000000000e+02,3.000000000000000000e+02,9.100000000000006695e-02,-2.638999999999995863e-02,-2.638999999999995863e-02,0.000000000000000000e+00,0.000000000000000000e+00,0.000000000000000000e+00,2.620800000000004366e+04,2.910383045673370361e-11,3.001332515850663185e-11,0.000000000000000000e+00,0.000000000000000000e+00,0.000000000000000000e+00
9.200000000000000000e+02,3.000000000000000000e+02,9.200000000000006783e-02,-2.667999999999995722e-02,-2.667999999999995722e-02,0.000000000000000000e+00,0.000000000000000000e+00,0.000000000000000000e+00,2.649600000000003638e+04,3.092281986027956009e-11,3.092281986027956009e-11,0.000000000000000000e+00,0.000000000000000000e+00,0.000000000000000000e+00
9.300000000000000000e+02,3.000000000000000000e+02,9.300000000000006872e-02,-2.696999999999995581e-02,-2.696999999999995581e-02,0.000000000000000000e+00,0.000000000000000000e+00,0.000000000000000000e+00,2.678400000000003638e+04,3.092281986027956009e-11,3.183231456205248833e-11,0.000000000000000000e+00,0.000000000000000000e+00,0.000000000000000000e+00
9.400000000000000000e+02,3.000000000000000000e+02,9.400000000000006961e-02,-2.725999999999995441e-02,-2.725999999999995441e-02,0.000000000000000000e+00,0.000000000000000000e+00,0.000000000000000000e+00,2.707200000000004366e+04,3.274180926382541656e-11,3.274180926382541656e-11,0.000000000000000000e+00,0.000000000000000000e+00,0.000000000000000000e+00
9.500000000000000000e+02,3.000000000000000000e+02,9.500000000000007050e-02,-2.754999999999995300e-02,-2.754999999999995300e-02,0.000000000000000000e+00,0.000000000000000000e+00,0.000000000000000000e+00,2.736000000000004366e+04,3.274180926382541656e-11,3.365130396559834480e-11,0.000000000000000000e+00,0.000000000000000000e+00,0.000000000000000000e+00
9.600000000000000000e+02,3.000000000000000000e+02,9.600000000000007139e-02,-2.783999999999995159e-02,-2.783999999999995159e-02,0.000000000000000000e+00,0.000000000000000000e+00,0.000000000000000000e+00,2.764800000000004366e+04,3.456079866737127304e-11,3.456079866737127304e-11,0.000000000000000000e+00,0.000000000000000000e+00,0.000000000000000000e+00
9.700000000000000000e+02,3.000000000000000000e+02,9.700000000000007228e-02,-2.812999999999995018e-02,-2.812999999999995018e-02,0.000000000000000000e+00,0.000000000000000000e+00,0.000000000000000000e+00,2.793600000000004366e+04,3.637978807091712952e-11,3.637978807091712952e-11,0.000000000000000000e+00,0.000000000000000000e+00,0.000000000000000000e+00
9.800000000000000000e+02,3.000000000000000000e+02,9.800000000000007316e-02,-2.841999999999994878e-02,-2.841999999999994878e-02,0.000000000000000000e+00,0.000000000000000000e+00,0.000000000000000000e+00,2.822400000000004366e+04,3.637978807091712952e-11,3.728928277269005775e-11,0.000000000000000000e+00,0.000000000000000000e+00,0.000000000000000000e+00
9.900000000000000000e+02,3.000000000000000000e+02,9.900000000000007405e-02,-2.870999999999994737e-02,-2.870999999999994737e-02,0.000000000000000000e+00,0.000000000000000000e+00,0.000000000000000000e+00,2.851200000000004729e+04,3.819877747446298599e-11,3.819877747446298599e-11,0.000000000000000000e+00,0.000000000000000000e+00,0.000000000000000000e+00
1.000000000000000000e+03,3.000000000000000000e+02,1.000000000000000749e-01,-2.899999999999994596e-02,-2.899999999999994596e-02,0.000000000000000000e+00,0.000000000000000000e+00,0.000000000000000000e+00,2.880000000000004729e+04,3.819877747446298599e-11,3.728928277269005775e-11,0.000000000000000000e+00,0.000000000000000000e+00,0.000000000000000000e+00
