"disp_:0","disp_:1","disp_:2","temp","GlobalNodeId","PedigreeNodeId","strain_rr","strain_tt","strain_zz","strain_rz","stress_rr","stress_tt","stress_zz","stress_rz","ObjectId","GlobalElementId","PedigreeElementId","vtkValidPointMask","arc_length","Points:0","Points:1","Points:2"
0.43091,5.4713e-05,0,0,2,2,-0.00017254,0.00025497,0.00010942,-6.9214e-08,-0.84936,42.177,42.124,-0.004019,1,1,1,1,0,1690,0.5,0
0.4309,5.4705e-05,0,0,4,4,-0.00017251,0.00025496,0.00010941,9.0886e-09,-0.84809,42.178,42.126,9.6e-05,1,2,2,1,0.060059,1690.1,0.5,0
0.43089,5.4705e-05,0,0,6,6,-0.00017249,0.00025494,0.00010941,8.8278e-09,-0.84682,42.179,42.128,0.0001092,1,3,3,1,0.12,1690.1,0.5,0
0.43088,5.4705e-05,0,0,9,9,-0.00017247,0.00025493,0.00010941,8.4323e-09,-0.84554,42.179,42.13,0.00012752,1,4,4,1,0.18005,1690.2,0.5,0
0.43087,5.4705e-05,0,0,11,11,-0.00017245,0.00025492,0.00010941,8.0499e-09,-0.84427,42.18,42.131,0.00014176,1,5,5,1,0.23999,1690.2,0.5,0
0.43086,5.4705e-05,0,0,14,14,-0.00017243,0.00025491,0.00010941,7.6819e-09,-0.843,42.181,42.133,0.00015238,1,6,6,1,0.30005,1690.3,0.5,0
0.43085,5.4705e-05,0,0,16,16,-0.00017239,0.00025488,0.00010941,6.9931e-09,-0.84045,42.182,42.137,0.00016511,1,8,8,1,0.35999,1690.4,0.5,0
0.43084,5.4705e-05,0,0,18,18,-0.00017236,0.00025487,0.00010941,6.6737e-09,-0.83918,42.183,42.139,0.00016805,1,9,9,1,0.42004,1690.4,0.5,0
0.43083,5.4705e-05,0,0,21,21,-0.00017234,0.00025486,0.00010941,6.3713e-09,-0.83791,42.183,42.141,0.00016917,1,10,10,1,0.47998,1690.5,0.5,0
0.43082,5.4705e-05,0,0,23,23,-0.00017232,0.00025484,0.00010941,6.0863e-09,-0.83664,42.184,42.143,0.00016881,1,11,11,1,0.54004,1690.5,0.5,0
0.43081,5.4705e-05,0,0,26,26,-0.0001723,0.00025483,0.00010941,5.8186e-09,-0.83536,42.185,42.145,0.00016721,1,12,12,1,0.59998,1690.6,0.5,0
0.43079,5.4705e-05,0,0,28,28,-0.00017226,0.0002548,0.00010941,5.3341e-09,-0.83282,42.186,42.149,0.00016127,1,14,14,1,0.66003,1690.7,0.5,0
0.43078,5.4705e-05,0,0,30,30,-0.00017224,0.00025479,0.00010941,5.1168e-09,-0.83155,42.186,42.15,0.00015732,1,15,15,1,0.71997,1690.7,0.5,0
0.43077,5.4705e-05,0,0,33,33,-0.00017221,0.00025478,0.00010941,4.9156e-09,-0.83028,42.187,42.152,0.00015292,1,16,16,1,0.78003,1690.8,0.5,0
0.43076,5.4705e-05,0,0,35,35,-0.00017219,0.00025477,0.00010941,4.7302e-09,-0.829,42.188,42.154,0.00014823,1,17,17,1,0.83997,1690.8,0.5,0
0.43075,5.4705e-05,0,0,38,38,-0.00017217,0.00025475,0.00010941,4.56e-09,-0.82773,42.188,42.156,0.00014337,1,18,18,1,0.90002,1690.9,0.5,0
0.43074,5.4705e-05,0,0,40,40,-0.00017213,0.00025473,0.00010941,4.2634e-09,-0.82519,42.19,42.16,0.0001335,1,20,20,1,0.95996,1691,0.5,0
0.43073,5.4705e-05,0,0,42,42,-0.00017211,0.00025472,0.00010941,4.136e-09,-0.82392,42.19,42.162,0.00012873,1,21,21,1,1.02,1691,0.5,0
0.43072,5.4705e-05,0,0,45,45,-0.00017209,0.0002547,0.00010941,4.0219e-09,-0.82264,42.191,42.164,0.00012415,1,22,22,1,1.08,1691.1,0.5,0
0.43071,5.4705e-05,0,0,47,47,-0.00017206,0.00025469,0.00010941,3.9205e-09,-0.82137,42.191,42.166,0.00011979,1,23,23,1,1.14,1691.1,0.5,0
0.4307,5.4705e-05,0,0,50,50,-0.00017204,0.00025468,0.00010941,3.8316e-09,-0.8201,42.192,42.168,0.00011574,1,24,24,1,1.2,1691.2,0.5,0
0.43069,5.4705e-05,0,0,52,52,-0.000172,0.00025465,0.00010941,3.6893e-09,-0.81756,42.193,42.172,0.00010864,1,26,26,1,1.26,1691.3,0.5,0
0.43068,5.4705e-05,0,0,54,54,-0.00017198,0.00025464,0.00010941,3.6352e-09,-0.81629,42.194,42.173,0.00010568,1,27,27,1,1.3199,1691.3,0.5,0
0.43067,5.4705e-05,0,0,57,57,-0.00017196,0.00025463,0.00010941,3.592e-09,-0.81501,42.195,42.175,0.00010314,1,28,28,1,1.38,1691.4,0.5,0
0.43066,5.4705e-05,0,0,59,59,-0.00017194,0.00025462,0.00010941,3.5595e-09,-0.81374,42.195,42.177,0.00010106,1,29,29,1,1.4399,1691.4,0.5,0
0.43065,5.4705e-05,0,0,62,62,-0.00017191,0.0002546,0.00010941,3.5374e-09,-0.81247,42.196,42.179,9.9463e-05,1,30,30,1,1.5,1691.5,0.5,0
0.43064,5.4705e-05,0,0,64,64,-0.00017187,0.00025458,0.00010941,3.5239e-09,-0.80993,42.197,42.183,9.7814e-05,1,32,32,1,1.5601,1691.6,0.5,0
0.43063,5.4705e-05,0,0,66,66,-0.00017185,0.00025457,0.00010941,3.5323e-09,-0.80866,42.198,42.185,9.7786e-05,1,33,33,1,1.62,1691.6,0.5,0
0.43062,5.4705e-05,0,0,69,69,-0.00017183,0.00025455,0.00010941,3.5507e-09,-0.80739,42.198,42.187,9.8392e-05,1,34,34,1,1.6801,1691.7,0.5,0
0.43061,5.4705e-05,0,0,71,71,-0.00017181,0.00025454,0.00010941,3.5793e-09,-0.80612,42.199,42.189,9.9608e-05,1,35,35,1,1.74,1691.7,0.5,0
0.4306,5.4705e-05,0,0,74,74,-0.00017179,0.00025453,0.00010941,3.6181e-09,-0.80484,42.199,42.191,0.00010147,1,36,36,1,1.8,1691.8,0.5,0
0.43059,5.4705e-05,0,0,76,76,-0.00017174,0.0002545,0.00010941,3.7275e-09,-0.8023,42.201,42.195,0.00010729,1,38,38,1,1.86,1691.9,0.5,0
0.43058,5.4705e-05,0,0,78,78,-0.00017172,0.00025449,0.00010941,3.7986e-09,-0.80103,42.201,42.197,0.00011132,1,39,39,1,1.92,1691.9,0.5,0
0.43057,5.4705e-05,0,0,81,81,-0.0001717,0.00025448,0.00010941,3.8813e-09,-0.79976,42.202,42.199,0.00011617,1,40,40,1,1.98,1692,0.5,0
0.43056,5.4705e-05,0,0,83,83,-0.00017168,0.00025446,0.00010941,3.9759e-09,-0.79849,42.202,42.201,0.00012187,1,41,41,1,2.04,1692,0.5,0
0.43055,5.4705e-05,0,0,86,86,-0.00017166,0.00025445,0.00010941,4.0831e-09,-0.79722,42.203,42.202,0.00012848,1,42,42,1,2.1,1692.1,0.5,0
0.43054,5.4705e-05,0,0,88,88,-0.00017162,0.00025443,0.00010941,4.3378e-09,-0.79468,42.204,42.206,0.00014466,1,44,44,1,2.16,1692.2,0.5,0
0.43053,5.4705e-05,0,0,90,90,-0.00017159,0.00025441,0.00010941,4.4871e-09,-0.79341,42.205,42.208,0.00015434,1,45,45,1,2.22,1692.2,0.5,0
0.43052,5.4705e-05,0,0,93,93,-0.00017157,0.0002544,0.00010941,4.6521e-09,-0.79214,42.205,42.21,0.00016524,1,46,46,1,2.28,1692.3,0.5,0
0.43051,5.4705e-05,0,0,95,95,-0.00017155,0.00025439,0.00010941,4.8344e-09,-0.79087,42.206,42.212,0.00017739,1,47,47,1,2.34,1692.3,0.5,0
0.4305,5.4705e-05,0,0,98,98,-0.00017153,0.00025438,0.00010941,5.035e-09,-0.7896,42.207,42.214,0.00019092,1,48,48,1,2.4,1692.4,0.5,0
0.43049,5.4705e-05,0,0,100,100,-0.00017149,0.00025435,0.00010941,5.4967e-09,-0.78706,42.208,42.218,0.00022248,1,50,50,1,2.46,1692.5,0.5,0
0.43048,5.4705e-05,0,0,102,102,-0.00017147,0.00025434,0.00010941,5.7611e-09,-0.78579,42.208,42.22,0.00024075,1,51,51,1,2.52,1692.5,0.5,0
0.43046,5.4705e-05,0,0,105,105,-0.00017144,0.00025433,0.00010941,6.0502e-09,-0.78452,42.209,42.222,0.00026086,1,52,52,1,2.58,1692.6,0.5,0
0.43045,5.4705e-05,0,0,107,107,-0.00017142,0.00025431,0.00010941,6.3663e-09,-0.78325,42.21,42.224,0.00028296,1,53,53,1,2.64,1692.6,0.5,0
0.43044,5.4705e-05,0,0,110,110,-0.0001714,0.0002543,0.00010941,6.7115e-09,-0.78198,42.21,42.226,0.00030722,1,54,54,1,2.7,1692.7,0.5,0
0.43043,5.4705e-05,0,0,112,112,-0.00017136,0.00025428,0.00010941,7.5e-09,-0.77944,42.211,42.23,0.00036294,1,56,56,1,2.76,1692.8,0.5,0
0.43042,5.4705e-05,0,0,114,114,-0.00017134,0.00025426,0.00010941,7.9489e-09,-0.77817,42.212,42.232,0.00039476,1,57,57,1,2.8199,1692.8,0.5,0
0.43041,5.4705e-05,0,0,117,117,-0.00017132,0.00025425,0.00010941,8.4381e-09,-0.7769,42.212,42.234,0.00042957,1,58,58,1,2.88,1692.9,0.5,0
0.4304,5.4705e-05,0,0,119,119,-0.0001713,0.00025424,0.00010941,8.7624e-09,-0.77563,42.213,42.236,0.00045291,1,59,59,1,2.9399,1692.9,0.5,0
0.43039,5.4697e-05,0,0,0,0,0.00012675,0.00025422,0.00010939,-6.3411e-08,-0.77217,104.63,97.449,-0.012172,2,61,61,1,3,1693,0.5,0
0.4304,5.469e-05,0,0,0,0,0.00012677,0.00025421,0.00010938,7.8991e-09,-0.76905,104.66,97.412,0.0012897,2,62,62,1,3.0601,1693.1,0.5,0
0.43041,5.469e-05,0,0,0,0,0.00012678,0.00025421,0.00010938,7.2059e-09,-0.76594,104.7,97.377,0.0011963,2,63,63,1,3.12,1693.1,0.5,0
0.43042,5.469e-05,0,0,0,0,0.00012678,0.00025421,0.00010938,6.1657e-09,-0.76282,104.73,97.341,0.0010516,2,64,64,1,3.1801,1693.2,0.5,0
0.43042,5.469e-05,0,0,0,0,0.00012679,0.0002542,0.00010938,5.2382e-09,-0.75971,104.76,97.306,0.00092076,2,65,65,1,3.24,1693.2,0.5,0
0.43043,5.469e-05,0,0,0,0,0.0001268,0.0002542,0.00010938,4.4118e-09,-0.75659,104.8,97.271,0.00080239,2,66,66,1,3.3,1693.3,0.5,0
0.43044,5.469e-05,0,0,0,0,0.00012682,0.00025419,0.00010938,3.0093e-09,-0.75036,104.86,97.202,0.00059714,2,68,68,1,3.36,1693.4,0.5,0
0.43045,5.469e-05,0,0,0,0,0.00012682,0.00025419,0.00010938,2.4118e-09,-0.74724,104.9,97.168,0.00050778,2,69,69,1,3.42,1693.4,0.5,0
0.43045,5.469e-05,0,0,0,0,0.00012683,0.00025418,0.00010938,1.8711e-09,-0.74412,104.93,97.135,0.00042589,2,70,70,1,3.48,1693.5,0.5,0
0.43046,5.469e-05,0,0,0,0,0.00012684,0.00025418,0.00010938,1.7609e-09,-0.741,104.96,97.102,0.00039641,2,71,71,1,3.54,1693.5,0.5,0
0.43047,5.469e-05,0,0,0,0,0.00012535,0.00025418,0.00010938,1.8478e-09,-0.73788,104.67,96.779,0.00039018,2,72,72,1,3.6,1693.6,0.5,0
0.43048,5.469e-05,0,0,0,0,0.00012205,0.00025417,0.00010938,1.5249e-09,-0.73168,104.01,96.073,0.00032244,2,74,74,1,3.66,1693.7,0.5,0
0.43048,5.469e-05,0,0,0,0,0.0001204,0.00025416,0.00010938,1.3705e-09,-0.72859,103.68,95.72,0.00029133,2,75,75,1,3.72,1693.7,0.5,0
0.43049,5.469e-05,0,0,0,0,0.00011876,0.00025416,0.00010938,1.2319e-09,-0.72551,103.35,95.367,0.00026322,2,76,76,1,3.78,1693.8,0.5,0
0.4305,5.4691e-05,0,0,0,0,0.00011711,0.00025416,0.00010938,1.1075e-09,-0.72245,103.03,95.014,0.00023785,2,77,77,1,3.84,1693.8,0.5,0
0.4305,5.4691e-05,0,0,0,0,0.00011546,0.00025415,0.00010938,9.9583e-10,-0.71939,102.7,94.66,0.00021495,2,78,78,1,3.9,1693.9,0.5,0
0.43051,5.4691e-05,0,0,0,0,0.00011217,0.00025414,0.00010938,8.0496e-10,-0.7133,102.04,93.954,0.00017558,2,80,80,1,3.96,1694,0.5,0
0.43052,5.4691e-05,0,0,0,0,0.00011052,0.00025414,0.00010938,7.2409e-10,-0.71027,101.72,93.601,0.00015869,2,81,81,1,4.02,1694,0.5,0
0.43052,5.4691e-05,0,0,0,0,0.00010888,0.00025414,0.00010938,6.5171e-10,-0.70726,101.39,93.247,0.00014345,2,82,82,1,4.08,1694.1,0.5,0
0.43053,5.4691e-05,0,0,0,0,0.00010723,0.00025413,0.00010938,5.8677e-10,-0.70425,101.06,92.894,0.00012968,2,83,83,1,4.14,1694.1,0.5,0
0.43054,5.4691e-05,0,0,0,0,0.00010558,0.00025413,0.00010938,5.285e-10,-0.70125,100.74,92.54,0.00011725,2,84,84,1,4.2,1694.2,0.5,0
0.43054,5.4691e-05,0,0,0,0,0.00010229,0.00025412,0.00010938,4.2969e-10,-0.69528,100.08,91.833,9.5905e-05,2,86,86,1,4.26,1694.3,0.5,0
0.43055,5.4691e-05,0,0,0,0,0.00010065,0.00025411,0.00010938,3.8796e-10,-0.69231,99.756,91.48,8.6768e-05,2,87,87,1,4.3199,1694.3,0.5,0
0.43056,5.4692e-05,0,0,0,0,9.9001e-05,0.00025411,0.00010938,3.5065e-10,-0.68935,99.429,91.126,7.8514e-05,2,88,88,1,4.38,1694.4,0.5,0
0.43056,5.4692e-05,0,0,0,0,9.7356e-05,0.0002541,0.00010938,3.1717e-10,-0.6864,99.103,90.772,7.1054e-05,2,89,89,1,4.4399,1694.4,0.5,0
0.43057,5.4692e-05,0,0,0,0,9.5711e-05,0.0002541,0.00010938,2.8715e-10,-0.68346,98.777,90.418,6.4322e-05,2,90,90,1,4.5,1694.5,0.5,0
0.43057,5.4692e-05,0,0,0,0,9.2421e-05,0.00025409,0.00010938,2.3546e-10,-0.67761,98.125,89.71,5.2725e-05,2,92,92,1,4.5601,1694.6,0.5,0
0.43058,5.4692e-05,0,0,0,0,9.0777e-05,0.00025409,0.00010938,2.138e-10,-0.6747,97.799,89.356,4.7723e-05,2,93,93,1,4.62,1694.6,0.5,0
0.43058,5.4692e-05,0,0,0,0,8.9132e-05,0.00025408,0.00010938,1.9446e-10,-0.6718,97.473,89.002,4.3202e-05,2,94,94,1,4.6801,1694.7,0.5,0
0.43059,5.4692e-05,0,0,0,0,8.7488e-05,0.00025408,0.00010938,1.7705e-10,-0.66891,97.147,88.647,3.9105e-05,2,95,95,1,4.74,1694.7,0.5,0
0.43059,5.4692e-05,0,0,0,0,8.5844e-05,0.00025407,0.00010938,1.6135e-10,-0.66603,96.822,88.293,3.5392e-05,2,96,96,1,4.8,1694.8,0.5,0
0.4306,5.4692e-05,0,0,0,0,8.2556e-05,0.00025406,0.00010938,1.3448e-10,-0.6603,96.171,87.584,2.8954e-05,2,98,98,1,4.86,1694.9,0.5,0
0.4306,5.4693e-05,0,0,0,0,8.0913e-05,0.00025406,0.00010939,1.2313e-10,-0.65745,95.846,87.23,2.6175e-05,2,99,99,1,4.92,1694.9,0.5,0
0.43061,5.4693e-05,0,0,0,0,7.927e-05,0.00025405,0.00010939,1.1305e-10,-0.6546,95.522,86.875,2.3661e-05,2,100,100,1,4.98,1695,0.5,0
0.43061,5.4693e-05,0,0,0,0,7.7627e-05,0.00025405,0.00010939,1.0405e-10,-0.65177,95.197,86.52,2.1404e-05,2,101,101,1,5.04,1695,0.5,0
0.43062,5.4693e-05,0,0,0,0,7.5984e-05,0.00025404,0.00010939,9.5892e-11,-0.64895,94.872,86.166,1.9396e-05,2,102,102,1,5.1,1695.1,0.5,0
0.43062,5.4693e-05,0,0,0,0,7.2698e-05,0.00025403,0.00010939,8.1657e-11,-0.64333,94.223,85.456,1.5846e-05,2,104,104,1,5.16,1695.2,0.5,0
0.43063,5.4693e-05,0,0,0,0,7.1056e-05,0.00025402,0.00010939,7.5732e-11,-0.64054,93.899,85.101,1.4314e-05,2,105,105,1,5.22,1695.2,0.5,0
0.43063,5.4693e-05,0,0,0,0,6.9414e-05,0.00025402,0.00010939,7.03e-11,-0.63776,93.575,84.746,1.292e-05,2,106,106,1,5.28,1695.3,0.5,0
0.43064,5.4693e-05,0,0,0,0,6.7772e-05,0.00025401,0.00010939,6.547e-11,-0.63498,93.251,84.391,1.1666e-05,2,107,107,1,5.34,1695.3,0.5,0
0.43064,5.4693e-05,0,0,0,0,6.613e-05,0.00025401,0.00010939,6.1134e-11,-0.63222,92.927,84.036,1.0531e-05,2,108,108,1,5.4,1695.4,0.5,0
0.43064,5.4694e-05,0,0,0,0,6.2847e-05,0.000254,0.00010939,5.3833e-11,-0.62672,92.28,83.326,8.5736e-06,2,110,110,1,5.46,1695.5,0.5,0
0.43065,5.4694e-05,0,0,0,0,6.1206e-05,0.00025399,0.00010939,5.0791e-11,-0.62398,91.957,82.97,7.737e-06,2,111,111,1,5.52,1695.5,0.5,0
0.43065,5.4694e-05,0,0,0,0,5.9565e-05,0.00025399,0.00010939,4.8135e-11,-0.62126,91.634,82.615,6.9922e-06,2,112,112,1,5.58,1695.6,0.5,0
0.43065,5.4694e-05,0,0,0,0,5.7924e-05,0.00025398,0.00010939,4.5461e-11,-0.61854,91.311,82.259,6.3321e-06,2,113,113,1,5.64,1695.6,0.5,0
0.43066,5.4694e-05,0,0,0,0,5.6284e-05,0.00025397,0.00010939,4.2973e-11,-0.61584,90.988,81.903,5.6551e-06,2,114,114,1,5.7,1695.7,0.5,0
0.43066,5.4694e-05,0,0,0,0,5.3003e-05,0.00025396,0.00010939,3.9471e-11,-0.61045,90.342,81.192,4.5209e-06,2,116,116,1,5.76,1695.8,0.5,0
0.43066,5.4694e-05,0,0,0,0,5.1363e-05,0.00025396,0.00010939,3.8118e-11,-0.60778,90.019,80.837,4.0502e-06,2,117,117,1,5.8199,1695.8,0.5,0
0.43067,5.4694e-05,0,0,0,0,4.9723e-05,0.00025395,0.00010939,3.6982e-11,-0.60511,89.697,80.481,3.6397e-06,2,118,118,1,5.88,1695.9,0.5,0
0.43067,5.4694e-05,0,0,0,0,4.8084e-05,0.00025394,0.00010939,3.5957e-11,-0.60245,89.375,80.125,3.2636e-06,2,119,119,1,5.9399,1695.9,0.5,0
0.43067,5.4695e-05,0,0,0,0,4.6445e-05,0.00025394,0.00010939,3.5153e-11,-0.5998,89.053,79.769,2.9307e-06,2,120,120,1,6,1696,0.5,0
0.43068,5.4695e-05,0,0,0,0,4.3167e-05,0.00025393,0.00010939,3.4236e-11,-0.59454,88.41,79.056,2.4109e-06,2,122,122,1,6.0601,1696.1,0.5,0
0.43068,5.4695e-05,0,0,0,0,4.1528e-05,0.00025392,0.00010939,3.3567e-11,-0.59192,88.088,78.7,2.2264e-06,2,123,123,1,6.12,1696.1,0.5,0
0.43068,5.4695e-05,0,0,0,0,3.989e-05,0.00025391,0.00010939,3.278e-11,-0.58931,87.767,78.344,1.9852e-06,2,124,124,1,6.1801,1696.2,0.5,0
0.43068,5.4695e-05,0,0,0,0,3.8252e-05,0.00025391,0.00010939,3.242e-11,-0.58671,87.446,77.987,1.8032e-06,2,125,125,1,6.24,1696.2,0.5,0
0.43069,5.4695e-05,0,0,0,0,3.6614e-05,0.0002539,0.00010939,3.2181e-11,-0.58412,87.124,77.631,1.6537e-06,2,126,126,1,6.3,1696.3,0.5,0
0.43069,5.4695e-05,0,0,0,0,3.3338e-05,0.00025389,0.00010939,3.1606e-11,-0.57897,86.483,76.918,1.4128e-06,2,128,128,1,6.36,1696.4,0.5,0
0.43069,5.4695e-05,0,0,0,0,3.1701e-05,0.00025388,0.00010939,3.1249e-11,-0.57641,86.162,76.561,1.3146e-06,2,129,129,1,6.42,1696.4,0.5,0
0.43069,5.4696e-05,0,0,0,0,3.0064e-05,0.00025387,0.00010939,3.0939e-11,-0.57386,85.842,76.204,1.2382e-06,2,130,130,1,6.48,1696.5,0.5,0
0.43069,5.4696e-05,0,0,0,0,2.8428e-05,0.00025387,0.00010939,3.0565e-11,-0.57131,85.522,75.847,1.1698e-06,2,131,131,1,6.54,1696.5,0.5,0
0.43069,5.4696e-05,0,0,0,0,2.6791e-05,0.00025386,0.00010939,3.0019e-11,-0.56878,85.202,75.49,1.1185e-06,2,132,132,1,6.6,1696.6,0.5,0
0.4307,5.4696e-05,0,0,0,0,2.3519e-05,0.00025385,0.00010939,2.8306e-11,-0.56374,84.562,74.776,9.5141e-07,2,134,134,1,6.66,1696.7,0.5,0
0.4307,5.4696e-05,0,0,0,0,2.1883e-05,0.00025384,0.00010939,2.7876e-11,-0.56124,84.243,74.419,8.6918e-07,2,135,135,1,6.72,1696.7,0.5,0
0.4307,5.4696e-05,0,0,0,0,2.0248e-05,0.00025383,0.00010939,2.7508e-11,-0.55875,83.923,74.061,7.8428e-07,2,136,136,1,6.78,1696.8,0.5,0
0.4307,5.4696e-05,0,0,0,0,1.8612e-05,0.00025383,0.00010939,2.725e-11,-0.55626,83.604,73.704,7.0391e-07,2,137,137,1,6.84,1696.8,0.5,0
0.4307,5.4696e-05,0,0,0,0,1.6978e-05,0.00025382,0.00010939,2.7095e-11,-0.55379,83.285,73.346,6.4451e-07,2,138,138,1,6.9,1696.9,0.5,0
0.4307,5.4696e-05,0,0,0,0,1.3709e-05,0.00025381,0.00010939,2.6976e-11,-0.54886,82.648,72.631,5.9869e-07,2,140,140,1,6.96,1697,0.5,0
0.4307,5.4697e-05,0,0,0,0,1.2074e-05,0.0002538,0.00010939,2.7037e-11,-0.54642,82.33,72.273,6.1833e-07,2,141,141,1,7.02,1697,0.5,0
0.4307,5.4697e-05,0,0,0,0,1.0441e-05,0.00025379,0.00010939,2.6621e-11,-0.54398,82.012,71.915,6.3582e-07,2,142,142,1,7.08,1697.1,0.5,0
0.4307,5.4697e-05,0,0,0,0,8.807e-06,0.00025378,0.00010939,2.6219e-11,-0.54155,81.694,71.558,5.5258e-07,2,143,143,1,7.14,1697.1,0.5,0
0.4307,5.4697e-05,0,0,0,0,7.1735e-06,0.00025378,0.00010939,2.6311e-11,-0.53914,81.376,71.2,5.0076e-07,2,144,144,1,7.2,1697.2,0.5,0
0.4307,5.4697e-05,0,0,0,0,3.9075e-06,0.00025376,0.00010939,2.6352e-11,-0.53433,80.74,70.483,4.0488e-07,2,146,146,1,7.26,1697.3,0.5,0
0.4307,5.4697e-05,0,0,0,0,2.275e-06,0.00025376,0.00010939,2.6295e-11,-0.53194,80.423,70.125,3.6843e-07,2,147,147,1,7.3199,1697.3,0.5,0
0.4307,5.4697e-05,0,0,0,0,6.4287e-07,0.00025375,0.00010939,2.6243e-11,-0.52956,80.106,69.767,3.5192e-07,2,148,148,1,7.38,1697.4,0.5,0
0.4307,5.4697e-05,0,0,0,0,-9.8895e-07,0.00025374,0.00010939,2.6256e-11,-0.52719,79.789,69.408,3.6291e-07,2,149,149,1,7.4399,1697.4,0.5,0
0.4307,5.4697e-05,0,0,0,0,-2.6204e-06,0.00025373,0.00010939,2.6101e-11,-0.52483,79.473,69.05,4.0571e-07,2,150,150,1,7.5,1697.5,0.5,0
0.4307,5.4698e-05,0,0,0,0,-5.8829e-06,0.00025372,0.0001094,2.5272e-11,-0.52013,78.84,68.332,2.1914e-07,2,152,152,1,7.5601,1697.6,0.5,0
0.4307,5.4698e-05,0,0,0,0,-7.5137e-06,0.00025371,0.0001094,2.5263e-11,-0.5178,78.524,67.974,1.1422e-07,2,153,153,1,7.62,1697.6,0.5,0
0.4307,5.4698e-05,0,0,0,0,-9.1443e-06,0.0002537,0.0001094,2.5257e-11,-0.51548,78.208,67.615,2.6238e-08,2,154,154,1,7.6801,1697.7,0.5,0
0.4307,5.4698e-05,0,0,0,0,-1.0774e-05,0.00025369,0.0001094,2.5192e-11,-0.51316,77.892,67.256,-5.1614e-08,2,155,155,1,7.74,1697.7,0.5,0
0.4307,5.4698e-05,0,0,0,0,-1.2404e-05,0.00025369,0.0001094,2.5129e-11,-0.51086,77.577,66.897,-1.1594e-07,2,156,156,1,7.8,1697.8,0.5,0
0.4307,5.4698e-05,0,0,0,0,-1.5663e-05,0.00025367,0.0001094,2.5005e-11,-0.50628,76.947,66.178,-2.2214e-07,2,158,158,1,7.86,1697.9,0.5,0
0.4307,5.4698e-05,0,0,0,0,-1.7291e-05,0.00025366,0.0001094,2.4557e-11,-0.504,76.632,65.818,-2.8969e-07,2,159,159,1,7.92,1697.9,0.5,0
0.4307,5.4698e-05,0,0,0,0,-1.892e-05,0.00025365,0.0001094,2.4091e-11,-0.50173,76.318,65.459,-3.8269e-07,2,160,160,1,7.98,1698,0.5,0
0.4307,5.4698e-05,0,0,0,0,-2.0548e-05,0.00025365,0.0001094,2.4221e-11,-0.49948,76.003,65.1,-4.2333e-07,2,161,161,1,8.04,1698,0.5,0
0.4307,5.4699e-05,0,0,0,0,-2.2176e-05,0.00025364,0.0001094,2.4404e-11,-0.49723,75.689,64.74,-4.3788e-07,2,162,162,1,8.1,1698.1,0.5,0
0.4307,5.4699e-05,0,0,0,0,-2.5431e-05,0.00025362,0.0001094,2.4873e-11,-0.49276,75.061,64.02,-3.754e-07,2,164,164,1,8.16,1698.2,0.5,0
0.43069,5.4699e-05,0,0,0,0,-2.7058e-05,0.00025361,0.0001094,2.5125e-11,-0.49054,74.748,63.66,-2.994e-07,2,165,165,1,8.22,1698.2,0.5,0
0.43069,5.4699e-05,0,0,0,0,-2.8684e-05,0.00025361,0.0001094,2.535e-11,-0.48833,74.435,63.3,-1.7899e-07,2,166,166,1,8.28,1698.3,0.5,0
0.43069,5.4699e-05,0,0,0,0,-3.031e-05,0.0002536,0.0001094,2.5197e-11,-0.48613,74.122,62.94,-7.2637e-08,2,167,167,1,8.34,1698.3,0.5,0
0.43069,5.4699e-05,0,0,0,0,-3.1936e-05,0.00025359,0.0001094,2.5157e-11,-0.48394,73.809,62.58,-6.6256e-08,2,168,168,1,8.4,1698.4,0.5,0
0.43069,5.4699e-05,0,0,0,0,-3.5187e-05,0.00025357,0.0001094,2.621e-11,-0.47958,73.184,61.859,6.5253e-08,2,170,170,1,8.46,1698.5,0.5,0
0.43068,5.4699e-05,0,0,0,0,-3.6812e-05,0.00025356,0.0001094,2.6784e-11,-0.47742,72.872,61.499,1.5602e-07,2,171,171,1,8.52,1698.5,0.5,0
0.43068,5.47e-05,0,0,0,0,-3.8436e-05,0.00025355,0.0001094,2.7276e-11,-0.47526,72.56,61.138,2.4128e-07,2,172,172,1,8.58,1698.6,0.5,0
0.43068,5.47e-05,0,0,0,0,-4.006e-05,0.00025355,0.0001094,2.7722e-11,-0.47312,72.249,60.777,3.2576e-07,2,173,173,1,8.64,1698.6,0.5,0
0.43068,5.47e-05,0,0,0,0,-4.1683e-05,0.00025354,0.0001094,2.7858e-11,-0.47098,71.938,60.416,4.4168e-07,2,174,174,1,8.7,1698.7,0.5,0
0.43067,5.47e-05,0,0,0,0,-4.4929e-05,0.00025352,0.0001094,2.7596e-11,-0.46674,71.316,59.694,4.0785e-07,2,176,176,1,8.76,1698.8,0.5,0
0.43067,5.47e-05,0,0,0,0,-4.6552e-05,0.00025351,0.0001094,2.7757e-11,-0.46463,71.005,59.333,4.206e-07,2,177,177,1,8.8199,1698.8,0.5,0
0.43067,5.47e-05,0,0,0,0,-4.8174e-05,0.0002535,0.0001094,2.8009e-11,-0.46253,70.695,58.972,4.5138e-07,2,178,178,1,8.88,1698.9,0.5,0
0.43067,5.47e-05,0,0,0,0,-4.9796e-05,0.00025349,0.0001094,2.8335e-11,-0.46044,70.385,58.611,5.0185e-07,2,179,179,1,8.9399,1698.9,0.5,0
0.43066,5.47e-05,0,0,0,0,-5.1417e-05,0.00025348,0.0001094,2.8869e-11,-0.45836,70.075,58.249,5.808e-07,2,180,180,1,9,1699,0.5,0
0.43066,5.47e-05,0,0,0,0,-5.4658e-05,0.00025347,0.0001094,3.0134e-11,-0.45423,69.457,57.525,7.9002e-07,2,182,182,1,9.0601,1699.1,0.5,0
0.43066,5.4701e-05,0,0,0,0,-5.6278e-05,0.00025346,0.0001094,3.1116e-11,-0.45218,69.148,57.164,8.4466e-07,2,183,183,1,9.12,1699.1,0.5,0
0.43065,5.4701e-05,0,0,0,0,-5.7898e-05,0.00025345,0.0001094,3.2768e-11,-0.45013,68.839,56.802,9.5279e-07,2,184,184,1,9.1801,1699.2,0.5,0
0.43065,5.4701e-05,0,0,0,0,-5.9517e-05,0.00025344,0.0001094,3.4604e-11,-0.4481,68.531,56.44,1.0796e-06,2,185,185,1,9.24,1699.2,0.5,0
0.43065,5.4701e-05,0,0,0,0,-6.1135e-05,0.00025343,0.0001094,3.6528e-11,-0.44607,68.222,56.078,1.2281e-06,2,186,186,1,9.3,1699.3,0.5,0
0.43064,5.4701e-05,0,0,0,0,-6.4371e-05,0.00025341,0.0001094,4.0434e-11,-0.44205,67.607,55.353,1.6409e-06,2,188,188,1,9.36,1699.4,0.5,0
0.43064,5.4701e-05,0,0,0,0,-6.5988e-05,0.0002534,0.0001094,4.217e-11,-0.44005,67.3,54.991,1.7892e-06,2,189,189,1,9.42,1699.4,0.5,0
0.43063,5.4701e-05,0,0,0,0,-6.7606e-05,0.00025339,0.0001094,4.44e-11,-0.43806,66.993,54.628,1.9716e-06,2,190,190,1,9.48,1699.5,0.5,0
0.43063,5.4701e-05,0,0,0,0,-6.9222e-05,0.00025338,0.0001094,4.7461e-11,-0.43608,66.686,54.266,2.2376e-06,2,191,191,1,9.54,1699.5,0.5,0
0.43063,5.4701e-05,0,0,0,0,-7.0838e-05,0.00025337,0.0001094,5.1226e-11,-0.43411,66.38,53.903,2.5764e-06,2,192,192,1,9.6,1699.6,0.5,0
0.43062,5.4702e-05,0,0,0,0,-7.4069e-05,0.00025335,0.0001094,6.0579e-11,-0.4302,65.768,53.177,3.4689e-06,2,194,194,1,9.66,1699.7,0.5,0
0.43062,5.4702e-05,0,0,0,0,-7.5683e-05,0.00025334,0.0001094,6.5668e-11,-0.42826,65.463,52.813,4.0452e-06,2,195,195,1,9.72,1699.7,0.5,0
0.43061,5.4702e-05,0,0,0,0,-7.7297e-05,0.00025334,0.0001094,7.1095e-11,-0.42632,65.157,52.45,4.5078e-06,2,196,196,1,9.78,1699.8,0.5,0
0.43061,5.4702e-05,0,0,0,0,-7.8911e-05,0.00025333,0.0001094,7.755e-11,-0.4244,64.852,52.087,5.0808e-06,2,197,197,1,9.84,1699.8,0.5,0
0.4306,5.4702e-05,0,0,0,0,-8.0524e-05,0.00025332,0.0001094,8.5256e-11,-0.42248,64.548,51.724,5.7744e-06,2,198,198,1,9.9,1699.9,0.5,0
0.4306,5.4702e-05,0,0,0,0,-8.3748e-05,0.0002533,0.0001094,1.0425e-10,-0.41868,63.94,50.996,7.5262e-06,2,200,200,1,9.96,1700,0.5,0
0.43059,5.4702e-05,0,0,0,0,-8.536e-05,0.00025329,0.0001094,1.1554e-10,-0.41679,63.636,50.632,8.6388e-06,2,201,201,1,10.02,1700,0.5,0
0.43059,5.4702e-05,0,0,0,0,-8.6971e-05,0.00025328,0.0001094,1.2786e-10,-0.41491,63.333,50.268,9.7352e-06,2,202,202,1,10.08,1700.1,0.5,0
0.43058,5.4703e-05,0,0,0,0,-8.8581e-05,0.00025327,0.0001094,1.4199e-10,-0.41304,63.03,49.904,1.0874e-05,2,203,203,1,10.14,1700.1,0.5,0
0.43058,5.4703e-05,0,0,0,0,-9.0191e-05,0.00025326,0.00010941,1.5851e-10,-0.41118,62.727,49.54,1.2224e-05,2,204,204,1,10.2,1700.2,0.5,0
0.43057,5.4703e-05,0,0,0,0,-9.3409e-05,0.00025324,0.00010941,1.9832e-10,-0.40749,62.123,48.811,1.5552e-05,2,206,206,1,10.26,1700.3,0.5,0
0.43057,5.4703e-05,0,0,0,0,-9.5018e-05,0.00025323,0.00010941,1.9919e-10,-0.40565,61.821,48.447,1.5838e-05,2,207,207,1,10.32,1700.3,0.5,0
0.43056,5.4703e-05,0,0,0,0,-9.6551e-05,0.00025322,0.00010941,2.514e-11,-0.40383,61.534,48.099,2.4959e-06,2,208,208,1,10.38,1700.4,0.5,0
0.43055,5.4703e-05,0,0,0,0,-9.7512e-05,0.0002532,0.00010941,-1.3248e-10,-0.40201,61.352,47.88,-9.8297e-06,2,209,209,1,10.44,1700.4,0.5,0
0.43055,5.4703e-05,0,0,0,0,-9.8465e-05,0.00025319,0.00010941,-1.2049e-10,-0.40019,61.171,47.664,-8.9804e-06,2,210,210,1,10.5,1700.5,0.5,0
0.43054,5.4703e-05,0,0,0,0,-0.00010035,0.00025317,0.00010941,-9.8897e-11,-0.39658,60.814,47.235,-7.4412e-06,2,212,212,1,10.56,1700.6,0.5,0
0.43054,5.4703e-05,0,0,0,0,-0.00010128,0.00025316,0.00010941,-8.9601e-11,-0.39479,60.638,47.022,-6.7739e-06,2,213,213,1,10.62,1700.6,0.5,0
0.43053,5.4703e-05,0,0,0,0,-0.00010221,0.00025315,0.00010941,-8.1194e-11,-0.393,60.463,46.812,-6.1682e-06,2,214,214,1,10.68,1700.7,0.5,0
0.43052,5.4703e-05,0,0,0,0,-0.00010312,0.00025314,0.00010941,-7.3622e-11,-0.39121,60.29,46.603,-5.622e-06,2,215,215,1,10.74,1700.7,0.5,0
0.43052,5.4703e-05,0,0,0,0,-0.00010403,0.00025313,0.00010941,-6.6786e-11,-0.38943,60.118,46.395,-5.1275e-06,2,216,216,1,10.8,1700.8,0.5,0
0.43051,5.4704e-05,0,0,0,0,-0.00010583,0.00025311,0.00010941,-5.501e-11,-0.38588,59.779,45.985,-4.2708e-06,2,218,218,1,10.86,1700.9,0.5,0
0.43051,5.4704e-05,0,0,0,0,-0.00010672,0.0002531,0.00010941,-4.9985e-11,-0.38411,59.612,45.782,-3.9045e-06,2,219,219,1,10.92,1700.9,0.5,0
0.4305,5.4704e-05,0,0,0,0,-0.00010759,0.00025309,0.00010941,-4.5442e-11,-0.38235,59.446,45.581,-3.5721e-06,2,220,220,1,10.98,1701,0.5,0
0.43049,5.4704e-05,0,0,0,0,-0.00010847,0.00025308,0.00010941,-4.1333e-11,-0.3806,59.282,45.381,-3.2702e-06,2,221,221,1,11.04,1701,0.5,0
0.43049,5.4704e-05,0,0,0,0,-0.00010933,0.00025307,0.00010941,-3.7559e-11,-0.37884,59.119,45.183,-2.9891e-06,2,222,222,1,11.1,1701.1,0.5,0
0.43048,5.4704e-05,0,0,0,0,-0.00011104,0.00025305,0.00010941,-3.0967e-11,-0.37536,58.798,44.792,-2.4912e-06,2,224,224,1,11.16,1701.2,0.5,0
0.43047,5.4704e-05,0,0,0,0,-0.00011188,0.00025304,0.00010941,-2.8071e-11,-0.37362,58.64,44.599,-2.2684e-06,2,225,225,1,11.22,1701.2,0.5,0
0.43047,5.4704e-05,0,0,0,0,-0.00011271,0.00025303,0.00010941,-2.539e-11,-0.37189,58.483,44.407,-2.0587e-06,2,226,226,1,11.28,1701.3,0.5,0
0.43046,5.4704e-05,0,0,0,0,-0.00011353,0.00025301,0.00010941,-2.2929e-11,-0.37016,58.328,44.217,-1.8639e-06,2,227,227,1,11.34,1701.3,0.5,0
0.43045,5.4704e-05,0,0,0,0,-0.00011435,0.000253,0.00010941,-2.0729e-11,-0.36844,58.174,44.029,-1.6901e-06,2,228,228,1,11.4,1701.4,0.5,0
0.43045,5.4704e-05,0,0,0,0,-0.00011596,0.00025298,0.00010941,-1.6779e-11,-0.36501,57.872,43.658,-1.37e-06,2,230,230,1,11.46,1701.5,0.5,0
0.43044,5.4704e-05,0,0,0,0,-0.00011676,0.00025297,0.00010941,-1.5094e-11,-0.3633,57.723,43.475,-1.2331e-06,2,231,231,1,11.52,1701.5,0.5,0
0.43043,5.4704e-05,0,0,0,0,-0.00011754,0.00025296,0.00010941,-1.3522e-11,-0.36159,57.575,43.293,-1.1031e-06,2,232,232,1,11.58,1701.6,0.5,0
0.43042,5.4704e-05,0,0,0,0,-0.00011832,0.00025295,0.00010941,-1.2085e-11,-0.35989,57.429,43.114,-9.8319e-07,2,233,233,1,11.64,1701.6,0.5,0
0.43042,5.4704e-05,0,0,0,0,-0.00011909,0.00025294,0.00010941,-1.077e-11,-0.3582,57.285,42.936,-8.7258e-07,2,234,234,1,11.7,1701.7,0.5,0
0.43041,5.4704e-05,0,0,0,0,-0.00012061,0.00025292,0.00010941,-8.5132e-12,-0.35482,57.001,42.585,-6.8197e-07,2,236,236,1,11.76,1701.8,0.5,0
0.4304,5.4704e-05,0,0,0,0,-0.00012136,0.00025291,0.00010941,-7.5053e-12,-0.35313,56.862,42.412,-5.9496e-07,2,237,237,1,11.82,1701.8,0.5,0
0.4304,5.4705e-05,0,0,0,0,-0.00012209,0.00025289,0.00010941,-6.6249e-12,-0.35146,56.724,42.241,-5.1972e-07,2,238,238,1,11.88,1701.9,0.5,0
0.43039,5.4705e-05,0,0,0,0,-0.00012282,0.00025288,0.00010941,-5.867e-12,-0.34978,56.587,42.071,-4.5601e-07,2,239,239,1,11.94,1701.9,0.5,0
0.43038,5.4705e-05,0,0,0,0,-0.00012355,0.00025287,0.00010941,-5.2132e-12,-0.34811,56.452,41.903,-4.019e-07,2,240,240,1,12,1702,0.5,0
0.43037,5.4705e-05,0,0,0,0,-0.00012497,0.00025285,0.00010941,-4.0819e-12,-0.34478,56.187,41.573,-3.0754e-07,2,242,242,1,12.06,1702.1,0.5,0
0.43037,5.4705e-05,0,0,0,0,-0.00012567,0.00025284,0.00010941,-3.6281e-12,-0.34312,56.056,41.411,-2.7054e-07,2,243,243,1,12.12,1702.1,0.5,0
0.43036,5.4705e-05,0,0,0,0,-0.00012636,0.00025283,0.00010941,-3.254e-12,-0.34147,55.928,41.25,-2.4117e-07,2,244,244,1,12.18,1702.2,0.5,0
0.43035,5.4705e-05,0,0,0,0,-0.00012704,0.00025282,0.00010941,-2.9061e-12,-0.33982,55.801,41.091,-2.133e-07,2,245,245,1,12.24,1702.2,0.5,0
0.43034,5.4705e-05,0,0,0,0,-0.00012771,0.00025281,0.00010941,-2.6514e-12,-0.33817,55.675,40.933,-1.9512e-07,2,246,246,1,12.3,1702.3,0.5,0
0.43033,5.4705e-05,0,0,0,0,-0.00012904,0.00025278,0.00010941,-2.3666e-12,-0.33489,55.428,40.624,-1.8167e-07,2,248,248,1,12.36,1702.4,0.5,0
0.43033,5.4705e-05,0,0,0,0,-0.00012969,0.00025277,0.00010941,-2.2543e-12,-0.33325,55.307,40.472,-1.7691e-07,2,249,249,1,12.42,1702.4,0.5,0
0.43032,5.4705e-05,0,0,0,0,-0.00013033,0.00025276,0.00010941,-2.1528e-12,-0.33162,55.188,40.321,-1.7256e-07,2,250,250,1,12.48,1702.5,0.5,0
0.43031,5.4705e-05,0,0,0,0,-0.00013096,0.00025275,0.00010941,-2.1421e-12,-0.32999,55.07,40.173,-1.7817e-07,2,251,251,1,12.54,1702.5,0.5,0
0.4303,5.4705e-05,0,0,0,0,-0.00013159,0.00025274,0.00010941,-2.1889e-12,-0.32836,54.954,40.026,-1.8989e-07,2,252,252,1,12.6,1702.6,0.5,0
0.4303,5.4705e-05,0,0,0,0,-0.00013282,0.00025272,0.00010941,-2.303e-12,-0.32512,54.725,39.737,-2.1383e-07,2,254,254,1,12.66,1702.7,0.5,0
0.43029,5.4705e-05,0,0,0,0,-0.00013342,0.0002527,0.00010941,-2.3801e-12,-0.32351,54.614,39.596,-2.2734e-07,2,255,255,1,12.72,1702.7,0.5,0
0.43028,5.4705e-05,0,0,0,0,-0.00013401,0.00025269,0.00010941,-2.4866e-12,-0.3219,54.503,39.456,-2.439e-07,2,256,256,1,12.78,1702.8,0.5,0
0.43027,5.4705e-05,0,0,0,0,-0.0001346,0.00025268,0.00010941,-2.5717e-12,-0.32029,54.394,39.318,-2.5745e-07,2,257,257,1,12.84,1702.8,0.5,0
0.43026,5.4705e-05,0,0,0,0,-0.00013518,0.00025267,0.00010941,-2.6477e-12,-0.31868,54.287,39.181,-2.6958e-07,2,258,258,1,12.9,1702.9,0.5,0
0.43026,5.4705e-05,0,0,0,0,-0.00013631,0.00025265,0.00010941,-2.6686e-12,-0.31548,54.077,38.914,-2.773e-07,2,260,260,1,12.96,1703,0.5,0
0.43025,5.4705e-05,0,0,0,0,-0.00013687,0.00025264,0.00010941,-2.6112e-12,-0.31389,53.974,38.782,-2.7266e-07,2,261,261,1,13.02,1703,0.5,0
0.43024,5.4705e-05,0,0,0,0,-0.00013741,0.00025263,0.00010941,-2.5958e-12,-0.3123,53.873,38.653,-2.7278e-07,2,262,262,1,13.08,1703.1,0.5,0
0.43023,5.4706e-05,0,0,0,0,-0.00013795,0.00025261,0.00010941,-2.5566e-12,-0.31071,53.773,38.525,-2.6986e-07,2,263,263,1,13.14,1703.1,0.5,0
0.43022,5.4706e-05,0,0,0,0,-0.00013848,0.0002526,0.00010941,-2.567e-12,-0.30912,53.675,38.399,-2.7267e-07,2,264,264,1,13.2,1703.2,0.5,0
0.43021,5.4706e-05,0,0,0,0,-0.00013952,0.00025258,0.00010941,-2.6711e-12,-0.30596,53.483,38.152,-2.8781e-07,2,266,266,1,13.26,1703.3,0.5,0
0.43021,5.4706e-05,0,0,0,0,-0.00014003,0.00025257,0.00010941,-2.7628e-12,-0.30438,53.389,38.031,-2.9991e-07,2,267,267,1,13.32,1703.3,0.5,0
0.4302,5.4706e-05,0,0,0,0,-0.00014053,0.00025256,0.00010941,-2.8326e-12,-0.3028,53.296,37.912,-3.093e-07,2,268,268,1,13.38,1703.4,0.5,0
0.43019,5.4706e-05,0,0,0,0,-0.00014102,0.00025254,0.00010941,-2.9456e-12,-0.30123,53.205,37.794,-3.2368e-07,2,269,269,1,13.44,1703.4,0.5,0
0.43018,5.4706e-05,0,0,0,0,-0.00014151,0.00025253,0.00010941,-3.0374e-12,-0.29966,53.116,37.679,-3.3544e-07,2,270,270,1,13.5,1703.5,0.5,0
0.43017,5.4706e-05,0,0,0,0,-0.00014246,0.00025251,0.00010941,-3.2027e-12,-0.29653,52.941,37.452,-3.5661e-07,2,272,272,1,13.56,1703.6,0.5,0
0.43016,5.4706e-05,0,0,0,0,-0.00014292,0.0002525,0.00010941,-3.2898e-12,-0.29497,52.855,37.341,-3.6762e-07,2,273,273,1,13.62,1703.6,0.5,0
0.43015,5.4706e-05,0,0,0,0,-0.00014338,0.00025249,0.00010941,-3.407e-12,-0.29341,52.771,37.232,-3.8217e-07,2,274,274,1,13.68,1703.7,0.5,0
0.43015,5.4706e-05,0,0,0,0,-0.00014382,0.00025248,0.00010941,-3.54e-12,-0.29186,52.689,37.124,-3.9851e-07,2,275,275,1,13.74,1703.7,0.5,0
0.43014,5.4706e-05,0,0,0,0,-0.00014426,0.00025246,0.00010941,-3.7045e-12,-0.2903,52.607,37.018,-4.1858e-07,2,276,276,1,13.8,1703.8,0.5,0
0.43013,5.4706e-05,0,0,0,0,-0.00014512,0.00025244,0.00010941,-4.1637e-12,-0.2872,52.449,36.811,-4.7411e-07,2,278,278,1,13.86,1703.9,0.5,0
0.43012,5.4706e-05,0,0,0,0,-0.00014554,0.00025243,0.00010941,-4.4295e-12,-0.28566,52.372,36.71,-5.0616e-07,2,279,279,1,13.92,1703.9,0.5,0
0.43011,5.4706e-05,0,0,0,0,-0.00014595,0.00025242,0.00010941,-4.6701e-12,-0.28411,52.296,36.611,-5.3517e-07,2,280,280,1,13.98,1704,0.5,0
0.4301,5.4706e-05,0,0,0,0,-0.00014636,0.00025241,0.00010941,-4.9102e-12,-0.28257,52.221,36.513,-5.6413e-07,2,281,281,1,14.04,1704,0.5,0
0.43009,5.4706e-05,0,0,0,0,-0.00014676,0.00025239,0.00010941,-5.1496e-12,-0.28103,52.148,36.417,-5.9298e-07,2,282,282,1,14.1,1704.1,0.5,0
0.43008,5.4706e-05,0,0,0,0,-0.00014753,0.00025237,0.00010941,-5.5544e-12,-0.27796,52.005,36.229,-6.4181e-07,2,284,284,1,14.16,1704.2,0.5,0
0.43008,5.4706e-05,0,0,0,0,-0.00014791,0.00025236,0.00010941,-5.7502e-12,-0.27643,51.936,36.137,-6.6541e-07,2,285,285,1,14.22,1704.2,0.5,0
0.43007,5.4706e-05,0,0,0,0,-0.00014828,0.00025235,0.00010941,-5.9593e-12,-0.2749,51.868,36.047,-6.9061e-07,2,286,286,1,14.28,1704.3,0.5,0
0.43006,5.4706e-05,0,0,0,0,-0.00014864,0.00025233,0.00010941,-6.1785e-12,-0.27337,51.801,35.959,-7.17e-07,2,287,287,1,14.34,1704.3,0.5,0
0.43005,5.4706e-05,0,0,0,0,-0.000149,0.00025232,0.00010941,-6.3751e-12,-0.27184,51.735,35.872,-7.4067e-07,2,288,288,1,14.4,1704.4,0.5,0
0.43004,5.4706e-05,0,0,0,0,-0.00014969,0.0002523,0.00010941,-6.7568e-12,-0.26879,51.607,35.702,-7.8664e-07,2,290,290,1,14.46,1704.5,0.5,0
0.43003,5.4706e-05,0,0,0,0,-0.00015003,0.00025229,0.00010941,-6.8918e-12,-0.26727,51.545,35.62,-8.0298e-07,2,291,291,1,14.52,1704.5,0.5,0
0.43002,5.4706e-05,0,0,0,0,-0.00015036,0.00025228,0.00010941,-6.9859e-12,-0.26575,51.485,35.539,-8.1443e-07,2,292,292,1,14.58,1704.6,0.5,0
0.43001,5.4706e-05,0,0,0,0,-0.00015068,0.00025226,0.00010941,-7.0779e-12,-0.26424,51.425,35.459,-8.2565e-07,2,293,293,1,14.64,1704.6,0.5,0
0.43,5.4706e-05,0,0,0,0,-0.000151,0.00025225,0.00010941,-7.1409e-12,-0.26272,51.366,35.381,-8.3341e-07,2,294,294,1,14.7,1704.7,0.5,0
0.42999,5.4706e-05,0,0,0,0,-0.00015161,0.00025223,0.00010941,-7.1779e-12,-0.2597,51.253,35.229,-8.3835e-07,2,296,296,1,14.76,1704.8,0.5,0
0.42999,5.4706e-05,0,0,0,0,-0.00015191,0.00025222,0.00010941,-7.0933e-12,-0.25819,51.198,35.155,-8.2854e-07,2,297,297,1,14.82,1704.8,0.5,0
0.42998,5.4706e-05,0,0,0,0,-0.0001522,0.0002522,0.00010941,-7.0365e-12,-0.25668,51.144,35.083,-8.2205e-07,2,298,298,1,14.88,1704.9,0.5,0
0.42997,5.4706e-05,0,0,0,0,-0.00015249,0.00025219,0.00010941,-6.9851e-12,-0.25517,51.091,35.011,-8.162e-07,2,299,299,1,14.94,1704.9,0.5,0
0.42996,5.4706e-05,0,0,0,0,-0.00015277,0.00025218,0.00010941,-6.9685e-12,-0.25367,51.039,34.942,-8.1449e-07,2,300,300,1,15,1705,0.5,0
0.42995,5.4707e-05,0,0,0,0,-0.00015332,0.00025216,0.00010941,-7.0165e-12,-0.25066,50.939,34.806,-8.2077e-07,2,302,302,1,15.06,1705.1,0.5,0
0.42994,5.4707e-05,0,0,0,0,-0.00015358,0.00025215,0.00010941,-7.0065e-12,-0.24916,50.89,34.74,-8.1986e-07,2,303,303,1,15.12,1705.1,0.5,0
0.42993,5.4707e-05,0,0,0,0,-0.00015384,0.00025213,0.00010941,-7.0198e-12,-0.24766,50.843,34.676,-8.2172e-07,2,304,304,1,15.18,1705.2,0.5,0
0.42992,5.4707e-05,0,0,0,0,-0.00015409,0.00025212,0.00010941,-7.0385e-12,-0.24616,50.796,34.613,-8.2423e-07,2,305,305,1,15.24,1705.2,0.5,0
0.42991,5.4707e-05,0,0,0,0,-0.00015433,0.00025211,0.00010941,-7.0438e-12,-0.24467,50.75,34.551,-8.2514e-07,2,306,306,1,15.3,1705.3,0.5,0
0.4299,5.4707e-05,0,0,0,0,-0.00015481,0.00025209,0.00010941,-6.9936e-12,-0.24168,50.662,34.431,-8.1974e-07,2,308,308,1,15.36,1705.4,0.5,0
0.42989,5.4707e-05,0,0,0,0,-0.00015504,0.00025207,0.00010941,-6.9681e-12,-0.24019,50.62,34.372,-8.1697e-07,2,309,309,1,15.42,1705.4,0.5,0
0.42988,5.4707e-05,0,0,0,0,-0.00015527,0.00025206,0.00010941,-6.9526e-12,-0.2387,50.578,34.315,-8.1539e-07,2,310,310,1,15.48,1705.5,0.5,0
0.42988,5.4707e-05,0,0,0,0,-0.00015549,0.00025205,0.00010941,-6.9185e-12,-0.23721,50.537,34.26,-8.1162e-07,2,311,311,1,15.54,1705.5,0.5,0
0.42987,5.4707e-05,0,0,0,0,-0.0001557,0.00025204,0.00010941,-6.8567e-12,-0.23572,50.497,34.205,-8.0454e-07,2,312,312,1,15.6,1705.6,0.5,0
0.42986,5.4707e-05,0,0,0,0,-0.00015611,0.00025201,0.00010941,-6.8101e-12,-0.23275,50.42,34.099,-7.9956e-07,2,314,314,1,15.66,1705.7,0.5,0
0.42985,5.4707e-05,0,0,0,0,-0.00015631,0.000252,0.00010941,-6.8876e-12,-0.23126,50.383,34.048,-8.0907e-07,2,315,315,1,15.72,1705.7,0.5,0
0.42984,5.4707e-05,0,0,0,0,-0.00015651,0.00025199,0.00010941,-6.9228e-12,-0.22978,50.347,33.998,-8.1354e-07,2,316,316,1,15.78,1705.8,0.5,0
0.42983,5.4707e-05,0,0,0,0,-0.0001567,0.00025198,0.00010941,-6.876e-12,-0.2283,50.311,33.949,-8.0824e-07,2,317,317,1,15.84,1705.8,0.5,0
0.42982,5.4707e-05,0,0,0,0,-0.00015688,0.00025197,0.00010941,-6.8539e-12,-0.22682,50.276,33.901,-8.0588e-07,2,318,318,1,15.9,1705.9,0.5,0
0.42981,5.4707e-05,0,0,0,0,-0.00015724,0.00025194,0.00010941,-6.9236e-12,-0.22386,50.21,33.809,-8.1472e-07,2,320,320,1,15.96,1706,0.5,0
0.4298,5.4707e-05,0,0,0,0,-0.00015741,0.00025193,0.00010941,-6.9682e-12,-0.22238,50.177,33.764,-8.2031e-07,2,321,321,1,16.02,1706,0.5,0
0.42979,5.4707e-05,0,0,0,0,-0.00015758,0.00025192,0.00010941,-6.9996e-12,-0.22091,50.146,33.72,-8.2431e-07,2,322,322,1,16.08,1706.1,0.5,0
0.42978,5.4707e-05,0,0,0,0,-0.00015774,0.00025191,0.00010941,-7.0014e-12,-0.21943,50.115,33.678,-8.2477e-07,2,323,323,1,16.14,1706.1,0.5,0
0.42977,5.4707e-05,0,0,0,0,-0.0001579,0.00025189,0.00010941,-7.018e-12,-0.21796,50.085,33.636,-8.2702e-07,2,324,324,1,16.2,1706.2,0.5,0
0.42976,5.4707e-05,0,0,0,0,-0.00015821,0.00025187,0.00010941,-7.069e-12,-0.21501,50.028,33.556,-8.3361e-07,2,326,326,1,16.26,1706.3,0.5,0
0.42975,5.4707e-05,0,0,0,0,-0.00015835,0.00025186,0.00010941,-7.0999e-12,-0.21354,50,33.517,-8.3754e-07,2,327,327,1,16.32,1706.3,0.5,0
0.42974,5.4707e-05,0,0,0,0,-0.0001585,0.00025185,0.00010941,-7.0965e-12,-0.21207,49.973,33.479,-8.3738e-07,2,328,328,1,16.38,1706.4,0.5,0
0.42973,5.4707e-05,0,0,0,0,-0.00015863,0.00025183,0.00010941,-7.088e-12,-0.2106,49.946,33.442,-8.3661e-07,2,329,329,1,16.44,1706.4,0.5,0
0.42972,5.4707e-05,0,0,0,0,-0.00015877,0.00025182,0.00010941,-7.1191e-12,-0.20913,49.921,33.406,-8.4055e-07,2,330,330,1,16.5,1706.5,0.5,0
0.42971,5.4707e-05,0,0,0,0,-0.00015903,0.0002518,0.00010941,-7.0597e-12,-0.20619,49.871,33.337,-8.3395e-07,2,332,332,1,16.56,1706.6,0.5,0
0.4297,5.4707e-05,0,0,0,0,-0.00015915,0.00025179,0.00010941,-6.9931e-12,-0.20472,49.847,33.304,-8.2624e-07,2,333,333,1,16.62,1706.6,0.5,0
0.4297,5.4707e-05,0,0,0,0,-0.00015927,0.00025177,0.00010941,-6.9812e-12,-0.20326,49.824,33.271,-8.2505e-07,2,334,334,1,16.68,1706.7,0.5,0
0.42969,5.4707e-05,0,0,0,0,-0.00015939,0.00025176,0.00010941,-6.9351e-12,-0.20179,49.802,33.239,-8.1977e-07,2,335,335,1,16.74,1706.7,0.5,0
0.42968,5.4707e-05,0,0,0,0,-0.0001595,0.00025175,0.00010941,-6.8493e-12,-0.20033,49.78,33.208,-8.0977e-07,2,336,336,1,16.8,1706.8,0.5,0
0.42967,5.4707e-05,0,0,0,0,-0.00015972,0.00025173,0.00010941,-6.6142e-12,-0.1974,49.738,33.149,-7.8217e-07,2,338,338,1,16.86,1706.9,0.5,0
0.42966,5.4707e-05,0,0,0,0,-0.00015982,0.00025171,0.00010941,-6.4471e-12,-0.19594,49.717,33.12,-7.6246e-07,2,339,339,1,16.92,1706.9,0.5,0
0.42965,5.4707e-05,0,0,0,0,-0.00015992,0.0002517,0.00010941,-6.2873e-12,-0.19448,49.698,33.093,-7.4362e-07,2,340,340,1,16.98,1707,0.5,0
0.42964,5.4707e-05,0,0,0,0,-0.00016002,0.00025169,0.00010941,-6.1702e-12,-0.19302,49.679,33.065,-7.2986e-07,2,341,341,1,17.04,1707,0.5,0
0.42963,5.4707e-05,0,0,0,0,-0.00016011,0.00025168,0.00010941,-6.1176e-12,-0.19156,49.66,33.039,-7.2377e-07,2,342,342,1,17.1,1707.1,0.5,0
0.42962,5.4707e-05,0,0,0,0,-0.00016029,0.00025165,0.00010941,-6.0502e-12,-0.18864,49.624,32.989,-7.1608e-07,2,344,344,1,17.16,1707.2,0.5,0
0.42961,5.4707e-05,0,0,0,0,-0.00016038,0.00025164,0.00010941,-6.0241e-12,-0.18718,49.607,32.964,-7.1314e-07,2,345,345,1,17.22,1707.2,0.5,0
0.4296,5.4707e-05,0,0,0,0,-0.00016046,0.00025163,0.00010941,-6.0064e-12,-0.18572,49.59,32.941,-7.1119e-07,2,346,346,1,17.28,1707.3,0.5,0
0.42959,5.4707e-05,0,0,0,0,-0.00016054,0.00025162,0.00010941,-5.9822e-12,-0.18426,49.574,32.918,-7.0845e-07,2,347,347,1,17.34,1707.3,0.5,0
0.42958,5.4707e-05,0,0,0,0,-0.00016062,0.00025161,0.00010941,-5.9272e-12,-0.18281,49.559,32.895,-7.0206e-07,2,348,348,1,17.4,1707.4,0.5,0
0.42957,5.4707e-05,0,0,0,0,-0.00016076,0.00025158,0.00010941,-5.9968e-12,-0.17989,49.528,32.853,-7.1063e-07,2,350,350,1,17.46,1707.5,0.5,0
0.42956,5.4707e-05,0,0,0,0,-0.00016083,0.00025157,0.00010941,-6.0534e-12,-0.17844,49.514,32.832,-7.175e-07,2,351,351,1,17.52,1707.5,0.5,0
0.42955,5.4707e-05,0,0,0,0,-0.0001609,0.00025156,0.00010941,-6.0753e-12,-0.17698,49.5,32.812,-7.2025e-07,2,352,352,1,17.58,1707.6,0.5,0
0.42954,5.4707e-05,0,0,0,0,-0.00016096,0.00025154,0.00010941,-6.0879e-12,-0.17553,49.486,32.793,-7.2187e-07,2,353,353,1,17.64,1707.6,0.5,0
0.42953,5.4707e-05,0,0,0,0,-0.00016102,0.00025153,0.00010941,-6.0776e-12,-0.17408,49.473,32.774,-7.2078e-07,2,354,354,1,17.7,1707.7,0.5,0
0.42952,5.4707e-05,0,0,0,0,-0.00016114,0.00025151,0.00010941,-5.9767e-12,-0.17117,49.448,32.738,-7.0899e-07,2,356,356,1,17.76,1707.8,0.5,0
0.42951,5.4707e-05,0,0,0,0,-0.0001612,0.0002515,0.00010941,-5.8951e-12,-0.16972,49.436,32.721,-6.9939e-07,2,357,357,1,17.82,1707.8,0.5,0
0.4295,5.4707e-05,0,0,0,0,-0.00016125,0.00025148,0.00010941,-5.8407e-12,-0.16826,49.424,32.705,-6.9302e-07,2,358,358,1,17.88,1707.9,0.5,0
0.42949,5.4707e-05,0,0,0,0,-0.0001613,0.00025147,0.00010941,-5.7827e-12,-0.16681,49.413,32.689,-6.8622e-07,2,359,359,1,17.94,1707.9,0.5,0
0.42948,5.4707e-05,0,0,0,0,-0.00016135,0.00025146,0.00010941,-5.731e-12,-0.16536,49.402,32.673,-6.8017e-07,2,360,360,1,18,1708,0.5,0
0.42947,5.4707e-05,0,0,0,0,-0.00016144,0.00025144,0.00010941,-5.433e-12,-0.16246,49.381,32.643,-6.4489e-07,2,362,362,1,18.06,1708.1,0.5,0
0.42946,5.4707e-05,0,0,0,0,-0.00016149,0.00025142,0.00010941,-5.2988e-12,-0.16101,49.371,32.629,-6.29e-07,2,363,363,1,18.12,1708.1,0.5,0
0.42945,5.4707e-05,0,0,0,0,-0.00016153,0.00025141,0.00010941,-5.2056e-12,-0.15956,49.361,32.615,-6.18e-07,2,364,364,1,18.18,1708.2,0.5,0
0.42944,5.4707e-05,0,0,0,0,-0.00016157,0.0002514,0.00010941,-5.0543e-12,-0.15811,49.351,32.602,-6.0008e-07,2,365,365,1,18.24,1708.2,0.5,0
0.42944,5.4707e-05,0,0,0,0,-0.00016161,0.00025139,0.00010941,-4.8987e-12,-0.15666,49.342,32.589,-5.8164e-07,2,366,366,1,18.3,1708.3,0.5,0
0.42943,5.4707e-05,0,0,0,0,-0.00016168,0.00025136,0.00010941,-4.549e-12,-0.15377,49.324,32.564,-5.4016e-07,2,368,368,1,18.36,1708.4,0.5,0
0.42942,5.4707e-05,0,0,0,0,-0.00016171,0.00025135,0.00010941,-4.4232e-12,-0.15232,49.316,32.553,-5.2525e-07,2,369,369,1,18.42,1708.4,0.5,0
0.42941,5.4707e-05,0,0,0,0,-0.00016174,0.00025134,0.00010941,-4.284e-12,-0.15087,49.308,32.541,-5.0874e-07,2,370,370,1,18.48,1708.5,0.5,0
0.4294,5.4707e-05,0,0,0,0,-0.00016177,0.00025133,0.00010941,-4.1608e-12,-0.14942,49.3,32.53,-4.9414e-07,2,371,371,1,18.54,1708.5,0.5,0
0.42939,5.4707e-05,0,0,0,0,-0.0001618,0.00025132,0.00010941,-4.0334e-12,-0.14798,49.292,32.52,-4.7904e-07,2,372,372,1,18.6,1708.6,0.5,0
0.42938,5.4707e-05,0,0,0,0,-0.00016186,0.00025129,0.00010941,-3.7754e-12,-0.14508,49.278,32.5,-4.4845e-07,2,374,374,1,18.66,1708.7,0.5,0
0.42937,5.4707e-05,0,0,0,0,-0.00016188,0.00025128,0.00010941,-3.7283e-12,-0.14364,49.271,32.49,-4.429e-07,2,375,375,1,18.72,1708.7,0.5,0
0.42936,5.4707e-05,0,0,0,0,-0.0001619,0.00025127,0.00010941,-3.7213e-12,-0.14219,49.264,32.481,-4.4212e-07,2,376,376,1,18.78,1708.8,0.5,0
0.42935,5.4707e-05,0,0,0,0,-0.00016193,0.00025125,0.00010941,-3.6908e-12,-0.14074,49.258,32.472,-4.3854e-07,2,377,377,1,18.84,1708.8,0.5,0
0.42934,5.4707e-05,0,0,0,0,-0.00016195,0.00025124,0.00010941,-3.6164e-12,-0.1393,49.251,32.463,-4.2974e-07,2,378,378,1,18.9,1708.9,0.5,0
0.42933,5.4707e-05,0,0,0,0,-0.00016199,0.00025122,0.00010941,-3.3931e-12,-0.13641,49.239,32.447,-4.0323e-07,2,380,380,1,18.96,1709,0.5,0
0.42932,5.4707e-05,0,0,0,0,-0.000162,0.00025121,0.00010941,-3.2522e-12,-0.13497,49.233,32.439,-3.865e-07,2,381,381,1,19.02,1709,0.5,0
0.42931,5.4707e-05,0,0,0,0,-0.00016202,0.00025119,0.00010941,-3.1594e-12,-0.13352,49.228,32.432,-3.755e-07,2,382,382,1,19.08,1709.1,0.5,0
0.4293,5.4707e-05,0,0,0,0,-0.00016203,0.00025118,0.00010941,-3.0791e-12,-0.13208,49.222,32.425,-3.6597e-07,2,383,383,1,19.14,1709.1,0.5,0
0.42929,5.4707e-05,0,0,0,0,-0.00016205,0.00025117,0.00010941,-3.0166e-12,-0.13063,49.217,32.418,-3.5856e-07,2,384,384,1,19.2,1709.2,0.5,0
0.42928,5.4707e-05,0,0,0,0,-0.00016207,0.00025115,0.00010941,-2.9284e-12,-0.12775,49.207,32.405,-3.4813e-07,2,386,386,1,19.26,1709.3,0.5,0
0.42927,5.4707e-05,0,0,0,0,-0.00016208,0.00025113,0.00010941,-2.89e-12,-0.1263,49.202,32.399,-3.436e-07,2,387,387,1,19.32,1709.3,0.5,0
0.42926,5.4707e-05,0,0,0,0,-0.00016209,0.00025112,0.00010941,-2.8753e-12,-0.12486,49.198,32.393,-3.4188e-07,2,388,388,1,19.38,1709.4,0.5,0
0.42925,5.4707e-05,0,0,0,0,-0.0001621,0.00025111,0.00010941,-2.8416e-12,-0.12342,49.193,32.387,-3.379e-07,2,389,389,1,19.44,1709.4,0.5,0
0.42924,5.4707e-05,0,0,0,0,-0.00016211,0.0002511,0.00010941,-2.7821e-12,-0.12198,49.189,32.381,-3.3084e-07,2,390,390,1,19.5,1709.5,0.5,0
0.42923,5.4707e-05,0,0,0,0,-0.00016213,0.00025107,0.00010941,-2.7628e-12,-0.11909,49.18,32.371,-3.2859e-07,2,392,392,1,19.56,1709.6,0.5,0
0.42922,5.4707e-05,0,0,0,0,-0.00016213,0.00025106,0.00010941,-2.7455e-12,-0.11765,49.176,32.366,-3.2656e-07,2,393,393,1,19.62,1709.6,0.5,0
0.42921,5.4707e-05,0,0,0,0,-0.00016214,0.00025105,0.00010941,-2.7552e-12,-0.11621,49.172,32.361,-3.2774e-07,2,394,394,1,19.68,1709.7,0.5,0
0.4292,5.4707e-05,0,0,0,0,-0.00016214,0.00025104,0.00010941,-2.8007e-12,-0.11477,49.169,32.357,-3.3318e-07,2,395,395,1,19.74,1709.7,0.5,0
0.42919,5.4707e-05,0,0,0,0,-0.00016215,0.00025102,0.00010941,-2.8263e-12,-0.11333,49.165,32.353,-3.3625e-07,2,396,396,1,19.8,1709.8,0.5,0
0.42918,5.4707e-05,0,0,0,0,-0.00016215,0.000251,0.00010941,-2.913e-12,-0.11044,49.158,32.344,-3.4661e-07,2,398,398,1,19.86,1709.9,0.5,0
0.42917,5.4707e-05,0,0,0,0,-0.00016216,0.00025099,0.00010941,-2.9138e-12,-0.109,49.154,32.341,-3.4673e-07,2,399,399,1,19.92,1709.9,0.5,0
0.42916,5.4707e-05,0,0,0,0,-0.00016216,0.00025098,0.00010941,-2.962e-12,-0.10756,49.151,32.337,-3.5249e-07,2,400,400,1,19.98,1710,0.5,0
0.42915,5.4707e-05,0,0,0,0,-0.00016216,0.00025096,0.00010941,-3.0673e-12,-0.10612,49.148,32.333,-3.6504e-07,2,401,401,1,20.04,1710,0.5,0
0.42914,5.4707e-05,0,0,0,0,-0.00016216,0.00025095,0.00010941,-3.1243e-12,-0.10468,49.145,32.33,-3.7185e-07,2,402,402,1,20.1,1710.1,0.5,0
0.42913,5.4707e-05,0,0,0,0,-0.00016216,0.00025093,0.00010941,-3.1643e-12,-0.1018,49.139,32.324,-3.7663e-07,2,404,404,1,20.16,1710.2,0.5,0
0.42912,5.4707e-05,0,0,0,0,-0.00016216,0.00025092,0.00010941,-3.1908e-12,-0.10036,49.136,32.321,-3.7981e-07,2,405,405,1,20.22,1710.2,0.5,0
0.42911,5.4707e-05,0,0,0,0,-0.00016215,0.0002509,0.00010941,-3.2354e-12,-0.098924,49.133,32.318,-3.8513e-07,2,406,406,1,20.28,1710.3,0.5,0
0.4291,5.4707e-05,0,0,0,0,-0.00016215,0.00025089,0.00010941,-3.2606e-12,-0.097485,49.13,32.315,-3.8814e-07,2,407,407,1,20.34,1710.3,0.5,0
0.42909,5.4707e-05,0,0,0,0,-0.00016215,0.00025088,0.00010941,-3.2705e-12,-0.096046,49.128,32.312,-3.8932e-07,2,408,408,1,20.4,1710.4,0.5,0
0.42909,5.4707e-05,0,0,0,0,-0.00016214,0.00025086,0.00010941,-3.2177e-12,-0.093168,49.123,32.307,-3.8306e-07,2,410,410,1,20.46,1710.5,0.5,0
0.42908,5.4707e-05,0,0,0,0,-0.00016214,0.00025084,0.00010941,-3.1647e-12,-0.09173,49.12,32.305,-3.7676e-07,2,411,411,1,20.52,1710.5,0.5,0
0.42907,5.4707e-05,0,0,0,0,-0.00016213,0.00025083,0.00010941,-3.075e-12,-0.090291,49.118,32.303,-3.6609e-07,2,412,412,1,20.58,1710.6,0.5,0
0.42906,5.4707e-05,0,0,0,0,-0.00016213,0.00025082,0.00010941,-3.007e-12,-0.088853,49.115,32.301,-3.58e-07,2,413,413,1,20.64,1710.6,0.5,0
0.42905,5.4707e-05,0,0,0,0,-0.00016212,0.00025081,0.00010941,-2.9552e-12,-0.087415,49.113,32.299,-3.5184e-07,2,414,414,1,20.7,1710.7,0.5,0
0.42904,5.4707e-05,0,0,0,0,-0.00016211,0.00025078,0.00010941,-2.6461e-12,-0.084539,49.108,32.295,-3.1504e-07,2,416,416,1,20.76,1710.8,0.5,0
0.42903,5.4707e-05,0,0,0,0,-0.00016211,0.00025077,0.00010941,-2.4761e-12,-0.083101,49.106,32.293,-2.9479e-07,2,417,417,1,20.82,1710.8,0.5,0
0.42902,5.4707e-05,0,0,0,0,-0.0001621,0.00025076,0.00010941,-2.3398e-12,-0.081664,49.104,32.292,-2.7857e-07,2,418,418,1,20.88,1710.9,0.5,0
0.42901,5.4707e-05,0,0,0,0,-0.00016209,0.00025075,0.00010941,-2.2413e-12,-0.080227,49.102,32.29,-2.6685e-07,2,419,419,1,20.94,1710.9,0.5,0
0.429,5.4707e-05,0,0,0,0,-0.00016209,0.00025074,0.00010941,-2.14e-12,-0.078789,49.1,32.289,-2.5479e-07,2,420,420,1,21,1711,0.5,0
0.42899,5.4707e-05,0,0,0,0,-0.00016207,0.00025071,0.00010941,-2.0289e-12,-0.075915,49.096,32.286,-2.4157e-07,2,422,422,1,21.06,1711.1,0.5,0
0.42898,5.4707e-05,0,0,0,0,-0.00016206,0.0002507,0.00010941,-1.9848e-12,-0.074478,49.094,32.285,-2.3632e-07,2,423,423,1,21.12,1711.1,0.5,0
0.42897,5.4707e-05,0,0,0,0,-0.00016206,0.00025069,0.00010941,-1.9874e-12,-0.073042,49.092,32.283,-2.3663e-07,2,424,424,1,21.18,1711.2,0.5,0
0.42896,5.4707e-05,0,0,0,0,-0.00016205,0.00025067,0.00010941,-2.0226e-12,-0.071605,49.09,32.282,-2.4082e-07,2,425,425,1,21.24,1711.2,0.5,0
0.42895,5.4707e-05,0,0,0,0,-0.00016204,0.00025066,0.00010941,-2.0722e-12,-0.070169,49.088,32.281,-2.4674e-07,2,426,426,1,21.3,1711.3,0.5,0
0.42894,5.4707e-05,0,0,0,0,-0.00016202,0.00025064,0.00010941,-2.0394e-12,-0.067297,49.085,32.279,-2.4283e-07,2,428,428,1,21.36,1711.4,0.5,0
0.42893,5.4707e-05,0,0,0,0,-0.00016201,0.00025063,0.00010941,-2.0233e-12,-0.06586,49.083,32.278,-2.4092e-07,2,429,429,1,21.42,1711.4,0.5,0
0.42892,5.4707e-05,0,0,0,0,-0.00016201,0.00025061,0.00010941,-2.0564e-12,-0.064425,49.081,32.277,-2.4486e-07,2,430,430,1,21.48,1711.5,0.5,0
0.42891,5.4707e-05,0,0,0,0,-0.000162,0.0002506,0.00010941,-2.0704e-12,-0.062989,49.079,32.276,-2.4652e-07,2,431,431,1,21.54,1711.5,0.5,0
0.4289,5.4707e-05,0,0,0,0,-0.00016199,0.00025059,0.00010941,-2.0217e-12,-0.061553,49.078,32.276,-2.4073e-07,2,432,432,1,21.6,1711.6,0.5,0
0.42889,5.4707e-05,0,0,0,0,-0.00016197,0.00025057,0.00010941,-1.8871e-12,-0.058683,49.074,32.274,-2.2471e-07,2,434,434,1,21.66,1711.7,0.5,0
0.42888,5.4707e-05,0,0,0,0,-0.00016196,0.00025055,0.00010941,-1.8754e-12,-0.057248,49.073,32.273,-2.2331e-07,2,435,435,1,21.72,1711.7,0.5,0
0.42887,5.4707e-05,0,0,0,0,-0.00016195,0.00025054,0.00010941,-1.8491e-12,-0.055813,49.071,32.273,-2.2018e-07,2,436,436,1,21.78,1711.8,0.5,0
0.42886,5.4707e-05,0,0,0,0,-0.00016194,0.00025053,0.00010941,-1.781e-12,-0.054378,49.069,32.272,-2.1207e-07,2,437,437,1,21.84,1711.8,0.5,0
0.42885,5.4707e-05,0,0,0,0,-0.00016193,0.00025052,0.00010941,-1.8097e-12,-0.052943,49.068,32.272,-2.1549e-07,2,438,438,1,21.9,1711.9,0.5,0
0.42884,5.4707e-05,0,0,0,0,-0.00016191,0.00025049,0.00010941,-2.0263e-12,-0.050074,49.064,32.271,-2.4129e-07,2,440,440,1,21.96,1712,0.5,0
0.42883,5.4707e-05,0,0,0,0,-0.0001619,0.00025048,0.00010941,-2.1753e-12,-0.048639,49.063,32.27,-2.5904e-07,2,441,441,1,22.02,1712,0.5,0
0.42882,5.4707e-05,0,0,0,0,-0.00016189,0.00025047,0.00010941,-2.3461e-12,-0.047205,49.061,32.27,-2.7937e-07,2,442,442,1,22.08,1712.1,0.5,0
0.42881,5.4707e-05,0,0,0,0,-0.00016188,0.00025046,0.00010941,-2.5707e-12,-0.045771,49.06,32.269,-3.0612e-07,2,443,443,1,22.14,1712.1,0.5,0
0.4288,5.4707e-05,0,0,0,0,-0.00016186,0.00025045,0.00010941,-2.7753e-12,-0.044337,49.058,32.269,-3.3049e-07,2,444,444,1,22.2,1712.2,0.5,0
0.42879,5.4707e-05,0,0,0,0,-0.00016184,0.00025042,0.00010941,-3.2879e-12,-0.041469,49.055,32.268,-3.9152e-07,2,446,446,1,22.26,1712.3,0.5,0
0.42878,5.4707e-05,0,0,0,0,-0.00016183,0.00025041,0.00010941,-3.5116e-12,-0.040036,49.054,32.268,-4.1816e-07,2,447,447,1,22.32,1712.3,0.5,0
0.42877,5.4707e-05,0,0,0,0,-0.00016182,0.0002504,0.00010941,-3.7338e-12,-0.038603,49.052,32.267,-4.4463e-07,2,448,448,1,22.38,1712.4,0.5,0
0.42876,5.4707e-05,0,0,0,0,-0.00016181,0.00025039,0.00010941,-3.9096e-12,-0.037169,49.051,32.267,-4.6557e-07,2,449,449,1,22.44,1712.4,0.5,0
0.42875,5.4707e-05,0,0,0,0,-0.0001618,0.00025037,0.00010941,-4.0331e-12,-0.035736,49.049,32.267,-4.8027e-07,2,450,450,1,22.5,1712.5,0.5,0
0.42874,5.4707e-05,0,0,0,0,-0.00016178,0.00025035,0.00010941,-4.1632e-12,-0.03287,49.046,32.266,-4.9576e-07,2,452,452,1,22.56,1712.6,0.5,0
0.42874,5.4707e-05,0,0,0,0,-0.00016176,0.00025034,0.00010941,-4.2086e-12,-0.031437,49.045,32.266,-5.0117e-07,2,453,453,1,22.62,1712.6,0.5,0
0.42873,5.4707e-05,0,0,0,0,-0.00016175,0.00025033,0.00010941,-4.2622e-12,-0.030004,49.043,32.266,-5.0756e-07,2,454,454,1,22.68,1712.7,0.5,0
0.42872,5.4707e-05,0,0,0,0,-0.00016174,0.00025031,0.00010941,-4.2224e-12,-0.028572,49.042,32.266,-5.0282e-07,2,455,455,1,22.74,1712.7,0.5,0
0.42871,5.4707e-05,0,0,0,0,-0.00016173,0.0002503,0.00010941,-4.1451e-12,-0.027139,49.04,32.265,-4.9361e-07,2,456,456,1,22.8,1712.8,0.5,0
0.4287,5.4707e-05,0,0,0,0,-0.00016171,0.00025028,0.00010941,-3.8306e-12,-0.024275,49.037,32.265,-4.5616e-07,2,458,458,1,22.86,1712.9,0.5,0
0.42869,5.4707e-05,0,0,0,0,-0.0001617,0.00025027,0.00010941,-3.4003e-12,-0.022843,49.036,32.265,-4.0491e-07,2,459,459,1,22.92,1712.9,0.5,0
0.42868,5.4707e-05,0,0,0,0,-0.00016168,0.00025025,0.00010941,-3.2184e-12,-0.021411,49.034,32.264,-3.8326e-07,2,460,460,1,22.98,1713,0.5,0
0.42867,5.4707e-05,0,0,0,0,-0.00016167,0.00025024,0.00010941,-3.1339e-12,-0.019979,49.033,32.264,-3.7319e-07,2,461,461,1,23.04,1713,0.5,0
0.42866,5.4707e-05,0,0,0,0,-0.00016166,0.00025023,0.00010941,-3.057e-12,-0.018547,49.031,32.264,-3.6404e-07,2,462,462,1,23.1,1713.1,0.5,0
0.42865,5.4707e-05,0,0,0,0,-0.00016164,0.00025021,0.00010941,-2.938e-12,-0.015684,49.029,32.263,-3.4986e-07,2,464,464,1,23.16,1713.2,0.5,0
0.42864,5.4707e-05,0,0,0,0,-0.00016163,0.00025019,0.00010941,-2.7621e-12,-0.014253,49.027,32.263,-3.2893e-07,2,465,465,1,23.22,1713.2,0.5,0
0.42863,5.4707e-05,0,0,0,0,-0.00016162,0.00025018,0.00010941,-2.9247e-12,-0.012822,49.026,32.263,-3.4829e-07,2,466,466,1,23.28,1713.3,0.5,0
0.42862,5.4707e-05,0,0,0,0,-0.0001616,0.00025017,0.00010941,-3.1655e-12,-0.011391,49.024,32.263,-3.7696e-07,2,467,467,1,23.34,1713.3,0.5,0
0.42861,5.4707e-05,0,0,0,0,-0.00016159,0.00025016,0.00010941,-3.1009e-12,-0.0099597,49.023,32.263,-3.6926e-07,2,468,468,1,23.4,1713.4,0.5,0
0.4286,5.4707e-05,0,0,0,0,-0.00016157,0.00025013,0.00010941,-2.9785e-12,-0.0070979,49.02,32.263,-3.5469e-07,2,470,470,1,23.46,1713.5,0.5,0
0.42859,5.4707e-05,0,0,0,0,-0.00016156,0.00025012,0.00010941,-2.9574e-12,-0.0056675,49.019,32.263,-3.5218e-07,2,471,471,1,23.52,1713.5,0.5,0
0.42858,5.4707e-05,0,0,0,0,-0.00016154,0.00025011,0.00010941,-2.9001e-12,-0.004237,49.017,32.263,-3.4536e-07,2,472,472,1,23.58,1713.6,0.5,0
0.42857,5.4707e-05,0,0,0,0,-0.00016153,0.0002501,0.00010941,-2.8712e-12,-0.0028067,49.016,32.263,-3.4191e-07,2,473,473,1,23.64,1713.6,0.5,0
0.42856,5.4707e-05,0,0,0,0,-0.00016152,0.00025009,0.00010941,-2.8347e-12,-0.0013766,49.014,32.263,-3.3756e-07,2,474,474,1,23.7,1713.7,0.5,0
0.42855,5.4707e-05,0,0,0,0,-0.0001615,0.00025006,0.00010941,-2.6605e-12,0.0014834,49.011,32.263,-3.1683e-07,2,476,476,1,23.76,1713.8,0.5,0
0.42854,5.4707e-05,0,0,0,0,-0.00016148,0.00025005,0.00010941,-2.5352e-12,0.0029132,49.01,32.263,-3.0191e-07,2,477,477,1,23.82,1713.8,0.5,0
0.42853,5.4707e-05,0,0,0,0,-0.00016147,0.00025004,0.00010941,-2.3572e-12,0.0043429,49.009,32.263,-2.8071e-07,2,478,478,1,23.88,1713.9,0.5,0
0.42852,5.4707e-05,0,0,0,0,-0.00016146,0.00025003,0.00010941,-2.245e-12,0.0057725,49.007,32.263,-2.6735e-07,2,479,479,1,23.94,1713.9,0.5,0
0.42851,5.4707e-05,0,0,0,0,-0.00016145,0.00025001,0.00010941,-2.1321e-12,0.007202,49.006,32.263,-2.539e-07,2,480,480,1,24,1714,0.5,0
0.4285,5.4707e-05,0,0,0,0,-0.00016142,0.00024999,0.00010941,-1.8117e-12,0.010061,49.003,32.263,-2.1575e-07,2,482,482,1,24.06,1714.1,0.5,0
0.42849,5.4707e-05,0,0,0,0,-0.00016141,0.00024998,0.00010941,-1.6901e-12,0.011489,49.001,32.263,-2.0127e-07,2,483,483,1,24.12,1714.1,0.5,0
0.42848,5.4707e-05,0,0,0,0,-0.0001614,0.00024997,0.00010941,-1.5051e-12,0.012918,49,32.263,-1.7923e-07,2,484,484,1,24.18,1714.2,0.5,0
0.42847,5.4707e-05,0,0,0,0,-0.00016139,0.00024995,0.00010941,-1.3027e-12,0.014347,48.999,32.263,-1.5513e-07,2,485,485,1,24.24,1714.2,0.5,0
0.42846,5.4707e-05,0,0,0,0,-0.00016138,0.00024994,0.00010941,-1.171e-12,0.015776,48.997,32.263,-1.3945e-07,2,486,486,1,24.3,1714.3,0.5,0
0.42845,5.4707e-05,0,0,0,0,-0.00016135,0.00024992,0.00010941,-8.2033e-13,0.018633,48.994,32.263,-9.7689e-08,2,488,488,1,24.36,1714.4,0.5,0
0.42844,5.4707e-05,0,0,0,0,-0.00016134,0.00024991,0.00010941,-6.6179e-13,0.020061,48.993,32.263,-7.8808e-08,2,489,489,1,24.42,1714.4,0.5,0
0.42843,5.4707e-05,0,0,0,0,-0.00016133,0.00024989,0.00010941,-5.2674e-13,0.02149,48.991,32.263,-6.2726e-08,2,490,490,1,24.48,1714.5,0.5,0
0.42843,5.4707e-05,0,0,0,0,-0.00016132,0.00024988,0.00010941,-3.5183e-13,0.022918,48.99,32.263,-4.1897e-08,2,491,491,1,24.54,1714.5,0.5,0
0.42842,5.4707e-05,0,0,0,0,-0.0001613,0.00024987,0.00010941,-1.8469e-13,0.024346,48.989,32.263,-2.1994e-08,2,492,492,1,24.6,1714.6,0.5,0
0.42841,5.4707e-05,0,0,0,0,-0.00016128,0.00024985,0.00010941,-1.5683e-14,0.027201,48.986,32.263,-1.8676e-09,2,494,494,1,24.66,1714.7,0.5,0
0.4284,5.4707e-05,0,0,0,0,-0.00016127,0.00024983,0.00010941,6.0297e-14,0.028629,48.984,32.263,7.1804e-09,2,495,495,1,24.72,1714.7,0.5,0
0.42839,5.4707e-05,0,0,0,0,-0.00016126,0.00024982,0.00010941,9.2248e-14,0.030056,48.983,32.263,1.0985e-08,2,496,496,1,24.78,1714.8,0.5,0
0.42838,5.4707e-05,0,0,0,0,-0.00016124,0.00024981,0.00010941,1.7068e-13,0.031484,48.981,32.263,2.0326e-08,2,497,497,1,24.84,1714.8,0.5,0
0.42837,5.4707e-05,0,0,0,0,-0.00016123,0.0002498,0.00010941,2.1055e-13,0.032911,48.98,32.263,2.5073e-08,2,498,498,1,24.9,1714.9,0.5,0
0.42836,5.4707e-05,0,0,0,0,-0.00016121,0.00024977,0.00010941,2.7603e-13,0.035765,48.977,32.263,3.287e-08,2,500,500,1,24.96,1715,0.5,0
0.42835,5.4707e-05,0,0,0,0,-0.0001612,0.00024976,0.00010941,3.5097e-13,0.037192,48.976,32.263,4.1795e-08,2,501,501,1,25.02,1715,0.5,0
0.42834,5.4707e-05,0,0,0,0,-0.00016118,0.00024975,0.00010941,3.806e-13,0.038618,48.974,32.263,4.5323e-08,2,502,502,1,25.08,1715.1,0.5,0
0.42833,5.4707e-05,0,0,0,0,-0.00016117,0.00024974,0.00010941,3.9681e-13,0.040044,48.973,32.263,4.7254e-08,2,503,503,1,25.14,1715.1,0.5,0
0.42832,5.4707e-05,0,0,0,0,-0.00016116,0.00024973,0.00010941,3.9376e-13,0.041471,48.971,32.263,4.689e-08,2,504,504,1,25.2,1715.2,0.5,0
0.42831,5.4707e-05,0,0,0,0,-0.00016114,0.0002497,0.00010941,3.1432e-13,0.044324,48.969,32.263,3.743e-08,2,506,506,1,25.26,1715.3,0.5,0
0.4283,5.4707e-05,0,0,0,0,-0.00016112,0.00024969,0.00010941,1.983e-13,0.04575,48.967,32.263,2.3615e-08,2,507,507,1,25.32,1715.3,0.5,0
0.42829,5.4707e-05,0,0,0,0,-0.00016111,0.00024968,0.00010941,7.1125e-14,0.047176,48.966,32.263,8.4698e-09,2,508,508,1,25.38,1715.4,0.5,0
0.42828,5.4707e-05,0,0,0,0,-0.0001611,0.00024967,0.00010941,-8.0135e-14,0.048602,48.964,32.263,-9.5428e-09,2,509,509,1,25.44,1715.4,0.5,0
0.42827,5.4707e-05,0,0,0,0,-0.00016109,0.00024965,0.00010941,-2.6209e-13,0.050027,48.963,32.263,-3.1211e-08,2,510,510,1,25.5,1715.5,0.5,0
0.42826,5.4707e-05,0,0,0,0,-0.00016107,0.00024963,0.00010941,-6.8412e-13,0.052878,48.96,32.263,-8.1468e-08,2,512,512,1,25.56,1715.6,0.5,0
0.42825,5.4707e-05,0,0,0,0,-0.00016105,0.00024962,0.00010941,-8.643e-13,0.054304,48.959,32.263,-1.0292e-07,2,513,513,1,25.62,1715.6,0.5,0
0.42824,5.4707e-05,0,0,0,0,-0.00016104,0.00024961,0.00010941,-9.7194e-13,0.055729,48.957,32.263,-1.1574e-07,2,514,514,1,25.68,1715.7,0.5,0
0.42823,5.4707e-05,0,0,0,0,-0.00016103,0.00024959,0.00010941,-1.0578e-12,0.057154,48.956,32.263,-1.2597e-07,2,515,515,1,25.74,1715.7,0.5,0
0.42822,5.4707e-05,0,0,0,0,-0.00016102,0.00024958,0.00010941,-1.1508e-12,0.058579,48.954,32.263,-1.3705e-07,2,516,516,1,25.8,1715.8,0.5,0
0.42821,5.4707e-05,0,0,0,0,-0.00016099,0.00024956,0.00010941,-1.2225e-12,0.061428,48.951,32.263,-1.4558e-07,2,518,518,1,25.86,1715.9,0.5,0
0.4282,5.4707e-05,0,0,0,0,-0.00016098,0.00024955,0.00010941,-1.1772e-12,0.062853,48.95,32.263,-1.4019e-07,2,519,519,1,25.92,1715.9,0.5,0
0.42819,5.4707e-05,0,0,0,0,-0.00016097,0.00024953,0.00010941,-1.1751e-12,0.064277,48.949,32.263,-1.3993e-07,2,520,520,1,25.98,1716,0.5,0
0.42818,5.4707e-05,0,0,0,0,-0.00016096,0.00024952,0.00010941,-1.174e-12,0.065702,48.947,32.263,-1.398e-07,2,521,521,1,26.04,1716,0.5,0
0.42817,5.4707e-05,0,0,0,0,-0.00016095,0.00024951,0.00010941,-1.1645e-12,0.067126,48.946,32.263,-1.3867e-07,2,522,522,1,26.1,1716.1,0.5,0
0.42816,5.4707e-05,0,0,0,0,-0.00016092,0.00024949,0.00010941,-1.1993e-12,0.069974,48.943,32.263,-1.4282e-07,2,524,524,1,26.16,1716.2,0.5,0
0.42815,5.4707e-05,0,0,0,0,-0.00016091,0.00024947,0.00010941,-1.2119e-12,0.071398,48.942,32.263,-1.4431e-07,2,525,525,1,26.22,1716.2,0.5,0
0.42814,5.4707e-05,0,0,0,0,-0.0001609,0.00024946,0.00010941,-1.2148e-12,0.072822,48.94,32.263,-1.4466e-07,2,526,526,1,26.28,1716.3,0.5,0
0.42814,5.4707e-05,0,0,0,0,-0.00016089,0.00024945,0.00010941,-1.2203e-12,0.074245,48.939,32.263,-1.4531e-07,2,527,527,1,26.34,1716.3,0.5,0
0.42813,5.4707e-05,0,0,0,0,-0.00016087,0.00024944,0.00010941,-1.2329e-12,0.075669,48.937,32.263,-1.4682e-07,2,528,528,1,26.4,1716.4,0.5,0
0.42812,5.4707e-05,0,0,0,0,-0.00016085,0.00024941,0.00010941,-1.1953e-12,0.078515,48.934,32.263,-1.4234e-07,2,530,530,1,26.46,1716.5,0.5,0
0.42811,5.4707e-05,0,0,0,0,-0.00016084,0.0002494,0.00010941,-1.1966e-12,0.079938,48.932,32.263,-1.4249e-07,2,531,531,1,26.52,1716.5,0.5,0
0.4281,5.4707e-05,0,0,0,0,-0.00016083,0.00024939,0.00010941,-1.1581e-12,0.081361,48.931,32.263,-1.3791e-07,2,532,532,1,26.58,1716.6,0.5,0
0.42809,5.4707e-05,0,0,0,0,-0.00016082,0.00024938,0.00010941,-1.0377e-12,0.082784,48.929,32.263,-1.2357e-07,2,533,533,1,26.64,1716.6,0.5,0
0.42808,5.4707e-05,0,0,0,0,-0.0001608,0.00024937,0.00010941,-9.47e-13,0.084206,48.928,32.263,-1.1277e-07,2,534,534,1,26.7,1716.7,0.5,0
0.42807,5.4707e-05,0,0,0,0,-0.00016078,0.00024934,0.00010941,-9.1459e-13,0.087051,48.925,32.263,-1.0891e-07,2,536,536,1,26.76,1716.8,0.5,0
0.42806,5.4707e-05,0,0,0,0,-0.00016077,0.00024933,0.00010941,-8.9808e-13,0.088474,48.923,32.263,-1.0695e-07,2,537,537,1,26.82,1716.8,0.5,0
0.42805,5.4707e-05,0,0,0,0,-0.00016076,0.00024932,0.00010941,-8.8804e-13,0.089896,48.921,32.263,-1.0575e-07,2,538,538,1,26.88,1716.9,0.5,0
0.42804,5.4707e-05,0,0,0,0,-0.00016075,0.00024931,0.00010941,-9.4602e-13,0.091318,48.92,32.263,-1.1265e-07,2,539,539,1,26.94,1716.9,0.5,0
0.42803,5.4707e-05,0,0,0,0,-0.00016074,0.00024929,0.00010941,-1.037e-12,0.09274,48.918,32.263,-1.2349e-07,2,540,540,1,27,1717,0.5,0
0.42802,5.4707e-05,0,0,0,0,-0.00016071,0.00024927,0.00010941,-1.1817e-12,0.095583,48.915,32.263,-1.4072e-07,2,542,542,1,27.06,1717.1,0.5,0
0.42801,5.4707e-05,0,0,0,0,-0.0001607,0.00024926,0.00010941,-1.3176e-12,0.097005,48.913,32.262,-1.569e-07,2,543,543,1,27.12,1717.1,0.5,0
0.428,5.4707e-05,0,0,0,0,-0.00016069,0.00024925,0.00010941,-1.4362e-12,0.098426,48.911,32.262,-1.7103e-07,2,544,544,1,27.18,1717.2,0.5,0
0.42799,5.4707e-05,0,0,0,0,-0.00016068,0.00024924,0.00010941,-1.5851e-12,0.099847,48.91,32.262,-1.8876e-07,2,545,545,1,27.24,1717.2,0.5,0
0.42798,5.4707e-05,0,0,0,0,-0.00016067,0.00024922,0.00010941,-1.7858e-12,0.10127,48.908,32.262,-2.1266e-07,2,546,546,1,27.3,1717.3,0.5,0
0.42797,5.4707e-05,0,0,0,0,-0.00016065,0.0002492,0.00010941,-2.2192e-12,0.10411,48.904,32.262,-2.6427e-07,2,548,548,1,27.36,1717.4,0.5,0
0.42796,5.4707e-05,0,0,0,0,-0.00016064,0.00024919,0.00010941,-2.4158e-12,0.10553,48.903,32.262,-2.8769e-07,2,549,549,1,27.42,1717.4,0.5,0
0.42795,5.4707e-05,0,0,0,0,-0.00016062,0.00024918,0.00010941,-2.5937e-12,0.10695,48.901,32.262,-3.0886e-07,2,550,550,1,27.48,1717.5,0.5,0
0.42794,5.4707e-05,0,0,0,0,-0.00016061,0.00024916,0.00010941,-2.7715e-12,0.10837,48.899,32.262,-3.3004e-07,2,551,551,1,27.54,1717.5,0.5,0
0.42793,5.4707e-05,0,0,0,0,-0.0001606,0.00024915,0.00010941,-2.8965e-12,0.10979,48.897,32.262,-3.4492e-07,2,552,552,1,27.6,1717.6,0.5,0
0.42792,5.4707e-05,0,0,0,0,-0.00016058,0.00024913,0.00010941,-3.1963e-12,0.11263,48.894,32.262,-3.8062e-07,2,554,554,1,27.66,1717.7,0.5,0
0.42791,5.4707e-05,0,0,0,0,-0.00016057,0.00024912,0.00010941,-3.3747e-12,0.11405,48.892,32.262,-4.0187e-07,2,555,555,1,27.72,1717.7,0.5,0
0.4279,5.4707e-05,0,0,0,0,-0.00016056,0.0002491,0.00010941,-3.5522e-12,0.11547,48.89,32.261,-4.23e-07,2,556,556,1,27.78,1717.8,0.5,0
0.42789,5.4707e-05,0,0,0,0,-0.00016055,0.00024909,0.00010941,-3.7098e-12,0.11689,48.888,32.261,-4.4177e-07,2,557,557,1,27.84,1717.8,0.5,0
0.42788,5.4707e-05,0,0,0,0,-0.00016054,0.00024908,0.00010941,-3.8187e-12,0.11831,48.886,32.261,-4.5474e-07,2,558,558,1,27.9,1717.9,0.5,0
0.42787,5.4707e-05,0,0,0,0,-0.00016052,0.00024906,0.00010941,-4.128e-12,0.12115,48.882,32.261,-4.9157e-07,2,560,560,1,27.96,1718,0.5,0
0.42787,5.4707e-05,0,0,0,0,-0.00016051,0.00024904,0.00010941,-4.3289e-12,0.12257,48.88,32.261,-5.1549e-07,2,561,561,1,28.02,1718,0.5,0
0.42786,5.4707e-05,0,0,0,0,-0.0001605,0.00024903,0.00010941,-4.5233e-12,0.12399,48.878,32.26,-5.3865e-07,2,562,562,1,28.08,1718.1,0.5,0
0.42785,5.4707e-05,0,0,0,0,-0.00016049,0.00024902,0.00010941,-4.7406e-12,0.12541,48.876,32.26,-5.6452e-07,2,563,563,1,28.14,1718.1,0.5,0
0.42784,5.4707e-05,0,0,0,0,-0.00016048,0.00024901,0.00010941,-4.8833e-12,0.12683,48.874,32.26,-5.8151e-07,2,564,564,1,28.2,1718.2,0.5,0
0.42783,5.4707e-05,0,0,0,0,-0.00016046,0.00024898,0.00010941,-4.9851e-12,0.12966,48.87,32.259,-5.9363e-07,2,566,566,1,28.26,1718.3,0.5,0
0.42782,5.4707e-05,0,0,0,0,-0.00016045,0.00024897,0.00010941,-5.0328e-12,0.13108,48.868,32.259,-5.9931e-07,2,567,567,1,28.32,1718.3,0.5,0
0.42781,5.4707e-05,0,0,0,0,-0.00016044,0.00024896,0.00010941,-4.9892e-12,0.1325,48.865,32.259,-5.9412e-07,2,568,568,1,28.38,1718.4,0.5,0
0.4278,5.4707e-05,0,0,0,0,-0.00016043,0.00024895,0.00010941,-4.8601e-12,0.13392,48.863,32.258,-5.7874e-07,2,569,569,1,28.44,1718.4,0.5,0
0.42779,5.4707e-05,0,0,0,0,-0.00016043,0.00024894,0.00010941,-4.7068e-12,0.13533,48.861,32.258,-5.6048e-07,2,570,570,1,28.5,1718.5,0.5,0
0.42778,5.4707e-05,0,0,0,0,-0.00016041,0.00024891,0.00010941,-4.3687e-12,0.13817,48.856,32.257,-5.2022e-07,2,572,572,1,28.56,1718.6,0.5,0
0.42777,5.4707e-05,0,0,0,0,-0.0001604,0.0002489,0.00010941,-4.2281e-12,0.13959,48.853,32.257,-5.0348e-07,2,573,573,1,28.62,1718.6,0.5,0
0.42776,5.4707e-05,0,0,0,0,-0.00016039,0.00024889,0.00010941,-4.0728e-12,0.141,48.85,32.256,-4.8498e-07,2,574,574,1,28.68,1718.7,0.5,0
0.42775,5.4707e-05,0,0,0,0,-0.00016038,0.00024888,0.00010941,-3.9545e-12,0.14242,48.848,32.256,-4.7088e-07,2,575,575,1,28.74,1718.7,0.5,0
0.42774,5.4707e-05,0,0,0,0,-0.00016038,0.00024887,0.00010941,-3.8195e-12,0.14384,48.845,32.255,-4.5481e-07,2,576,576,1,28.8,1718.8,0.5,0
0.42773,5.4707e-05,0,0,0,0,-0.00016036,0.00024884,0.00010941,-3.7481e-12,0.14667,48.839,32.254,-4.463e-07,2,578,578,1,28.86,1718.9,0.5,0
0.42772,5.4707e-05,0,0,0,0,-0.00016036,0.00024883,0.00010941,-3.8071e-12,0.14809,48.836,32.254,-4.5332e-07,2,579,579,1,28.92,1718.9,0.5,0
0.42771,5.4707e-05,0,0,0,0,-0.00016035,0.00024882,0.00010941,-3.8663e-12,0.1495,48.833,32.253,-4.6037e-07,2,580,580,1,28.98,1719,0.5,0
0.4277,5.4707e-05,0,0,0,0,-0.00016034,0.00024881,0.00010941,-3.8798e-12,0.15092,48.83,32.252,-4.6197e-07,2,581,581,1,29.04,1719,0.5,0
0.42769,5.4707e-05,0,0,0,0,-0.00016034,0.00024879,0.00010941,-3.9201e-12,0.15234,48.827,32.251,-4.6676e-07,2,582,582,1,29.1,1719.1,0.5,0
0.42768,5.4707e-05,0,0,0,0,-0.00016033,0.00024877,0.00010941,-3.9589e-12,0.15517,48.821,32.25,-4.7138e-07,2,584,584,1,29.16,1719.2,0.5,0
0.42767,5.4707e-05,0,0,0,0,-0.00016032,0.00024876,0.00010941,-3.9514e-12,0.15658,48.817,32.249,-4.7047e-07,2,585,585,1,29.22,1719.2,0.5,0
0.42766,5.4707e-05,0,0,0,0,-0.00016032,0.00024875,0.00010941,-3.9703e-12,0.158,48.814,32.248,-4.7273e-07,2,586,586,1,29.28,1719.3,0.5,0
0.42765,5.4707e-05,0,0,0,0,-0.00016031,0.00024873,0.00010941,-4.0098e-12,0.15941,48.81,32.247,-4.7741e-07,2,587,587,1,29.34,1719.3,0.5,0
0.42764,5.4707e-05,0,0,0,0,-0.00016031,0.00024872,0.00010941,-4.0307e-12,0.16083,48.806,32.246,-4.799e-07,2,588,588,1,29.4,1719.4,0.5,0
0.42763,5.4707e-05,0,0,0,0,-0.0001603,0.0002487,0.00010941,-4.0324e-12,0.16366,48.799,32.244,-4.8009e-07,2,590,590,1,29.46,1719.5,0.5,0
0.42762,5.4707e-05,0,0,0,0,-0.0001603,0.00024869,0.00010941,-4.0167e-12,0.16507,48.795,32.242,-4.7821e-07,2,591,591,1,29.52,1719.5,0.5,0
0.42761,5.4707e-05,0,0,0,0,-0.0001603,0.00024868,0.00010941,-3.9367e-12,0.16648,48.79,32.241,-4.6867e-07,2,592,592,1,29.58,1719.6,0.5,0
0.42761,5.4707e-05,0,0,0,0,-0.0001603,0.00024866,0.00010941,-3.814e-12,0.1679,48.786,32.24,-4.5405e-07,2,593,593,1,29.64,1719.6,0.5,0
0.4276,5.4707e-05,0,0,0,0,-0.0001603,0.00024865,0.00010941,-3.659e-12,0.16931,48.782,32.238,-4.3559e-07,2,594,594,1,29.7,1719.7,0.5,0
0.42759,5.4707e-05,0,0,0,0,-0.0001603,0.00024863,0.00010941,-3.2578e-12,0.17214,48.773,32.235,-3.8779e-07,2,596,596,1,29.76,1719.8,0.5,0
0.42758,5.4707e-05,0,0,0,0,-0.0001603,0.00024862,0.00010941,-3.053e-12,0.17355,48.768,32.233,-3.6339e-07,2,597,597,1,29.82,1719.8,0.5,0
0.42757,5.4707e-05,0,0,0,0,-0.0001603,0.0002486,0.00010941,-2.8582e-12,0.17496,48.763,32.232,-3.4018e-07,2,598,598,1,29.88,1719.9,0.5,0
0.42756,5.4707e-05,0,0,0,0,-0.0001603,0.00024859,0.00010941,-2.6355e-12,0.17637,48.758,32.23,-3.1365e-07,2,599,599,1,29.94,1719.9,0.5,0
0.42755,5.4707e-05,0,0,0,0,-0.0001603,0.00024858,0.00010941,-2.4703e-12,0.17779,48.752,32.228,-2.9397e-07,2,600,600,1,30,1720,0.5,0
0.42754,5.4707e-05,0,0,0,0,-0.00016031,0.00024856,0.00010941,-2.2086e-12,0.18061,48.741,32.224,-2.6277e-07,2,602,602,1,30.06,1720.1,0.5,0
0.42753,5.4707e-05,0,0,0,0,-0.00016031,0.00024854,0.00010941,-2.1469e-12,0.18202,48.736,32.221,-2.5541e-07,2,603,603,1,30.12,1720.1,0.5,0
0.42752,5.4707e-05,0,0,0,0,-0.00016032,0.00024853,0.00010941,-2.1007e-12,0.18343,48.73,32.219,-2.499e-07,2,604,604,1,30.18,1720.2,0.5,0
0.42751,5.4707e-05,0,0,0,0,-0.00016032,0.00024852,0.00010941,-2.1017e-12,0.18484,48.724,32.217,-2.5e-07,2,605,605,1,30.24,1720.2,0.5,0
0.4275,5.4707e-05,0,0,0,0,-0.00016033,0.00024851,0.00010941,-2.1854e-12,0.18626,48.717,32.214,-2.5995e-07,2,606,606,1,30.3,1720.3,0.5,0
0.42749,5.4707e-05,0,0,0,0,-0.00016034,0.00024849,0.00010941,-2.415e-12,0.18908,48.704,32.209,-2.8726e-07,2,608,608,1,30.36,1720.4,0.5,0
0.42748,5.4707e-05,0,0,0,0,-0.00016035,0.00024847,0.00010941,-2.5402e-12,0.19049,48.697,32.206,-3.0215e-07,2,609,609,1,30.42,1720.4,0.5,0
0.42747,5.4707e-05,0,0,0,0,-0.00016036,0.00024846,0.00010941,-2.712e-12,0.19189,48.69,32.203,-3.2258e-07,2,610,610,1,30.48,1720.5,0.5,0
0.42746,5.4707e-05,0,0,0,0,-0.00016037,0.00024845,0.00010941,-2.9157e-12,0.1933,48.683,32.199,-3.4681e-07,2,611,611,1,30.54,1720.5,0.5,0
0.42745,5.4707e-05,0,0,0,0,-0.00016038,0.00024844,0.00010941,-3.0798e-12,0.19471,48.675,32.196,-3.6633e-07,2,612,612,1,30.6,1720.6,0.5,0
0.42744,5.4707e-05,0,0,0,0,-0.00016041,0.00024841,0.00010941,-3.4691e-12,0.19753,48.659,32.189,-4.1265e-07,2,614,614,1,30.66,1720.7,0.5,0
0.42743,5.4707e-05,0,0,0,0,-0.00016042,0.0002484,0.00010941,-3.6994e-12,0.19894,48.651,32.185,-4.4004e-07,2,615,615,1,30.72,1720.7,0.5,0
0.42742,5.4707e-05,0,0,0,0,-0.00016044,0.00024839,0.00010941,-3.9297e-12,0.20035,48.643,32.181,-4.6743e-07,2,616,616,1,30.78,1720.8,0.5,0
0.42741,5.4707e-05,0,0,0,0,-0.00016045,0.00024838,0.00010941,-4.1326e-12,0.20175,48.634,32.177,-4.9156e-07,2,617,617,1,30.84,1720.8,0.5,0
0.4274,5.4707e-05,0,0,0,0,-0.00016047,0.00024837,0.00010941,-4.3087e-12,0.20316,48.625,32.173,-5.125e-07,2,618,618,1,30.9,1720.9,0.5,0
0.42739,5.4707e-05,0,0,0,0,-0.00016051,0.00024834,0.00010941,-4.5508e-12,0.20597,48.606,32.164,-5.4126e-07,2,620,620,1,30.96,1721,0.5,0
0.42738,5.4707e-05,0,0,0,0,-0.00016053,0.00024833,0.00010941,-4.6387e-12,0.20738,48.596,32.159,-5.517e-07,2,621,621,1,31.02,1721,0.5,0
0.42737,5.4707e-05,0,0,0,0,-0.00016055,0.00024832,0.00010941,-4.7365e-12,0.20879,48.586,32.154,-5.633e-07,2,622,622,1,31.08,1721.1,0.5,0
0.42736,5.4707e-05,0,0,0,0,-0.00016058,0.00024831,0.00010941,-4.7942e-12,0.21019,48.575,32.148,-5.7013e-07,2,623,623,1,31.14,1721.1,0.5,0
0.42736,5.4707e-05,0,0,0,0,-0.0001606,0.0002483,0.00010941,-4.8065e-12,0.2116,48.564,32.143,-5.7155e-07,2,624,624,1,31.2,1721.2,0.5,0
0.42735,5.4707e-05,0,0,0,0,-0.00016065,0.00024827,0.00010941,-4.8479e-12,0.2144,48.542,32.131,-5.7639e-07,2,626,626,1,31.26,1721.3,0.5,0
0.42734,5.4707e-05,0,0,0,0,-0.00016068,0.00024826,0.00010941,-4.8322e-12,0.21581,48.53,32.125,-5.7447e-07,2,627,627,1,31.32,1721.3,0.5,0
0.42733,5.4707e-05,0,0,0,0,-0.00016071,0.00024825,0.00010941,-4.8156e-12,0.21721,48.517,32.119,-5.7243e-07,2,628,628,1,31.38,1721.4,0.5,0
0.42732,5.4707e-05,0,0,0,0,-0.00016074,0.00024824,0.00010941,-4.7971e-12,0.21861,48.505,32.112,-5.7017e-07,2,629,629,1,31.44,1721.4,0.5,0
0.42731,5.4707e-05,0,0,0,0,-0.00016078,0.00024822,0.00010941,-4.7365e-12,0.22002,48.492,32.106,-5.6289e-07,2,630,630,1,31.5,1721.5,0.5,0
0.4273,5.4707e-05,0,0,0,0,-0.00016085,0.0002482,0.00010941,-4.7163e-12,0.22282,48.465,32.091,-5.6036e-07,2,632,632,1,31.56,1721.6,0.5,0
0.42729,5.4707e-05,0,0,0,0,-0.00016088,0.00024819,0.00010941,-4.7278e-12,0.22422,48.451,32.083,-5.6167e-07,2,633,633,1,31.62,1721.6,0.5,0
0.42728,5.4707e-05,0,0,0,0,-0.00016092,0.00024818,0.00010941,-4.7527e-12,0.22562,48.436,32.076,-5.6455e-07,2,634,634,1,31.68,1721.7,0.5,0
0.42727,5.4707e-05,0,0,0,0,-0.00016096,0.00024816,0.00010941,-4.7773e-12,0.22702,48.421,32.067,-5.6741e-07,2,635,635,1,31.74,1721.7,0.5,0
0.42726,5.4707e-05,0,0,0,0,-0.00016101,0.00024815,0.00010941,-4.8106e-12,0.22842,48.406,32.059,-5.713e-07,2,636,636,1,31.8,1721.8,0.5,0
0.42725,5.4707e-05,0,0,0,0,-0.0001611,0.00024813,0.00010941,-4.822e-12,0.23122,48.374,32.041,-5.7249e-07,2,638,638,1,31.86,1721.9,0.5,0
0.42724,5.4707e-05,0,0,0,0,-0.00016115,0.00024812,0.00010941,-4.7986e-12,0.23261,48.357,32.032,-5.6961e-07,2,639,639,1,31.92,1721.9,0.5,0
0.42723,5.4707e-05,0,0,0,0,-0.0001612,0.0002481,0.00010941,-4.7904e-12,0.23401,48.34,32.022,-5.6854e-07,2,640,640,1,31.98,1722,0.5,0
0.42722,5.4707e-05,0,0,0,0,-0.00016125,0.00024809,0.00010941,-4.8077e-12,0.23541,48.322,32.012,-5.7049e-07,2,641,641,1,32.04,1722,0.5,0
0.42721,5.4707e-05,0,0,0,0,-0.0001613,0.00024808,0.00010941,-4.8337e-12,0.2368,48.304,32.001,-5.7348e-07,2,642,642,1,32.1,1722.1,0.5,0
0.4272,5.4707e-05,0,0,0,0,-0.00016142,0.00024806,0.00010941,-4.8305e-12,0.23959,48.266,31.979,-5.7288e-07,2,644,644,1,32.16,1722.2,0.5,0
0.42719,5.4707e-05,0,0,0,0,-0.00016148,0.00024805,0.00010941,-4.868e-12,0.24099,48.246,31.968,-5.7723e-07,2,645,645,1,32.22,1722.2,0.5,0
0.42718,5.4707e-05,0,0,0,0,-0.00016154,0.00024803,0.00010941,-4.9465e-12,0.24238,48.226,31.956,-5.8646e-07,2,646,646,1,32.28,1722.3,0.5,0
0.42717,5.4707e-05,0,0,0,0,-0.00016161,0.00024802,0.00010941,-5.0225e-12,0.24377,48.205,31.944,-5.9539e-07,2,647,647,1,32.34,1722.3,0.5,0
0.42716,5.4707e-05,0,0,0,0,-0.00016168,0.00024801,0.00010941,-5.0813e-12,0.24517,48.184,31.931,-6.0227e-07,2,648,648,1,32.4,1722.4,0.5,0
0.42715,5.4707e-05,0,0,0,0,-0.00016182,0.00024799,0.00010941,-5.259e-12,0.24795,48.139,31.904,-6.2317e-07,2,650,650,1,32.46,1722.5,0.5,0
0.42714,5.4707e-05,0,0,0,0,-0.00016189,0.00024797,0.00010941,-5.3063e-12,0.24934,48.116,31.89,-6.2867e-07,2,651,651,1,32.52,1722.5,0.5,0
0.42713,5.4707e-05,0,0,0,0,-0.00016197,0.00024796,0.00010941,-5.3049e-12,0.25073,48.092,31.876,-6.2836e-07,2,652,652,1,32.58,1722.6,0.5,0
0.42712,5.4707e-05,0,0,0,0,-0.00016205,0.00024795,0.00010941,-5.3217e-12,0.25211,48.067,31.861,-6.3022e-07,2,653,653,1,32.64,1722.6,0.5,0
0.42711,5.4707e-05,0,0,0,0,-0.00016214,0.00024794,0.00010941,-5.4388e-12,0.2535,48.042,31.846,-6.4402e-07,2,654,654,1,32.7,1722.7,0.5,0
0.4271,5.4707e-05,0,0,0,0,-0.00016231,0.00024791,0.00010941,-5.6515e-12,0.25627,47.99,31.814,-6.6904e-07,2,656,656,1,32.76,1722.8,0.5,0
0.42709,5.4707e-05,0,0,0,0,-0.0001624,0.0002479,0.00010941,-5.7717e-12,0.25766,47.963,31.797,-6.8318e-07,2,657,657,1,32.82,1722.8,0.5,0
0.42708,5.4707e-05,0,0,0,0,-0.0001625,0.00024789,0.00010941,-5.9228e-12,0.25904,47.935,31.78,-7.0102e-07,2,658,658,1,32.88,1722.9,0.5,0
0.42707,5.4707e-05,0,0,0,0,-0.00016259,0.00024788,0.00010941,-6.051e-12,0.26043,47.907,31.762,-7.1611e-07,2,659,659,1,32.94,1722.9,0.5,0
0.42706,5.4707e-05,0,0,0,0,-0.00016269,0.00024787,0.00010941,-6.2007e-12,0.26181,47.877,31.744,-7.3376e-07,2,660,660,1,33,1723,0.5,0
0.42705,5.4707e-05,0,0,0,0,-0.0001629,0.00024784,0.00010941,-6.561e-12,0.26457,47.817,31.706,-7.7632e-07,2,662,662,1,33.06,1723.1,0.5,0
0.42704,5.4707e-05,0,0,0,0,-0.00016301,0.00024783,0.00010941,-6.6989e-12,0.26595,47.785,31.686,-7.9255e-07,2,663,663,1,33.12,1723.1,0.5,0
0.42704,5.4707e-05,0,0,0,0,-0.00016313,0.00024782,0.00010941,-6.7894e-12,0.26733,47.753,31.665,-8.0315e-07,2,664,664,1,33.18,1723.2,0.5,0
0.42703,5.4707e-05,0,0,0,0,-0.00016325,0.00024781,0.00010941,-6.8878e-12,0.26871,47.72,31.644,-8.1467e-07,2,665,665,1,33.24,1723.2,0.5,0
0.42702,5.4707e-05,0,0,0,0,-0.00016337,0.0002478,0.00010941,-6.9775e-12,0.27008,47.686,31.622,-8.2515e-07,2,666,666,1,33.3,1723.3,0.5,0
0.42701,5.4707e-05,0,0,0,0,-0.00016362,0.00024777,0.00010941,-7.0745e-12,0.27283,47.616,31.577,-8.3629e-07,2,668,668,1,33.36,1723.4,0.5,0
0.427,5.4707e-05,0,0,0,0,-0.00016375,0.00024776,0.00010941,-7.1103e-12,0.2742,47.579,31.554,-8.4034e-07,2,669,669,1,33.42,1723.4,0.5,0
0.42699,5.4707e-05,0,0,0,0,-0.00016388,0.00024775,0.00010941,-7.0947e-12,0.27558,47.542,31.529,-8.3827e-07,2,670,670,1,33.48,1723.5,0.5,0
0.42698,5.4707e-05,0,0,0,0,-0.00016402,0.00024774,0.00010941,-7.0441e-12,0.27695,47.504,31.504,-8.3201e-07,2,671,671,1,33.54,1723.5,0.5,0
0.42697,5.4707e-05,0,0,0,0,-0.00016416,0.00024772,0.00010941,-6.9662e-12,0.27832,47.465,31.479,-8.225e-07,2,672,672,1,33.6,1723.6,0.5,0
0.42696,5.4707e-05,0,0,0,0,-0.00016446,0.0002477,0.00010941,-6.7434e-12,0.28105,47.384,31.426,-7.9551e-07,2,674,674,1,33.66,1723.7,0.5,0
0.42695,5.4707e-05,0,0,0,0,-0.00016461,0.00024769,0.00010941,-6.6422e-12,0.28242,47.342,31.398,-7.8323e-07,2,675,675,1,33.72,1723.7,0.5,0
0.42694,5.4707e-05,0,0,0,0,-0.00016477,0.00024768,0.00010941,-6.5902e-12,0.28378,47.299,31.37,-7.7678e-07,2,676,676,1,33.78,1723.8,0.5,0
0.42693,5.4707e-05,0,0,0,0,-0.00016493,0.00024766,0.00010941,-6.5199e-12,0.28514,47.256,31.341,-7.6818e-07,2,677,677,1,33.84,1723.8,0.5,0
0.42692,5.4707e-05,0,0,0,0,-0.0001651,0.00024765,0.00010941,-6.4328e-12,0.28651,47.211,31.311,-7.5757e-07,2,678,678,1,33.9,1723.9,0.5,0
0.42691,5.4707e-05,0,0,0,0,-0.00016544,0.00024763,0.00010941,-6.438e-12,0.28923,47.119,31.249,-7.5768e-07,2,680,680,1,33.96,1724,0.5,0
0.4269,5.4707e-05,0,0,0,0,-0.00016562,0.00024762,0.00010941,-6.4736e-12,0.29058,47.071,31.217,-7.6166e-07,2,681,681,1,34.02,1724,0.5,0
0.42689,5.4707e-05,0,0,0,0,-0.00016581,0.0002476,0.00010941,-6.4522e-12,0.29194,47.022,31.184,-7.5887e-07,2,682,682,1,34.08,1724.1,0.5,0
0.42688,5.4707e-05,0,0,0,0,-0.00016599,0.00024759,0.00010941,-6.4138e-12,0.29329,46.972,31.15,-7.5404e-07,2,683,683,1,34.14,1724.1,0.5,0
0.42687,5.4707e-05,0,0,0,0,-0.00016619,0.00024758,0.00010941,-6.4243e-12,0.29465,46.921,31.116,-7.5503e-07,2,684,684,1,34.2,1724.2,0.5,0
0.42686,5.4707e-05,0,0,0,0,-0.00016659,0.00024756,0.00010941,-6.4788e-12,0.29735,46.816,31.044,-7.6101e-07,2,686,686,1,34.26,1724.3,0.5,0
0.42685,5.4707e-05,0,0,0,0,-0.00016679,0.00024754,0.00010941,-6.4716e-12,0.2987,46.762,31.007,-7.5989e-07,2,687,687,1,34.32,1724.3,0.5,0
0.42684,5.4707e-05,0,0,0,0,-0.00016701,0.00024753,0.00010941,-6.4673e-12,0.30004,46.706,30.969,-7.5913e-07,2,688,688,1,34.38,1724.4,0.5,0
0.42683,5.4707e-05,0,0,0,0,-0.00016722,0.00024752,0.00010941,-6.5231e-12,0.30139,46.65,30.93,-7.6552e-07,2,689,689,1,34.44,1724.4,0.5,0
0.42682,5.4708e-05,0,0,0,0,-0.00016745,0.00024751,0.00010941,-6.5344e-12,0.30273,46.592,30.89,-7.666e-07,2,690,690,1,34.5,1724.5,0.5,0
0.42681,5.4708e-05,0,0,0,0,-0.00016791,0.00024748,0.00010942,-6.4332e-12,0.30541,46.473,30.808,-7.5404e-07,2,692,692,1,34.56,1724.6,0.5,0
0.4268,5.4708e-05,0,0,0,0,-0.00016814,0.00024747,0.00010942,-6.3554e-12,0.30675,46.412,30.765,-7.4453e-07,2,693,693,1,34.62,1724.6,0.5,0
0.42679,5.4708e-05,0,0,0,0,-0.00016839,0.00024746,0.00010942,-6.2362e-12,0.30808,46.35,30.722,-7.3009e-07,2,694,694,1,34.68,1724.7,0.5,0
0.42678,5.4708e-05,0,0,0,0,-0.00016863,0.00024745,0.00010942,-6.102e-12,0.30942,46.286,30.677,-7.1387e-07,2,695,695,1,34.74,1724.7,0.5,0
0.42677,5.4708e-05,0,0,0,0,-0.00016889,0.00024744,0.00010942,-5.9272e-12,0.31075,46.221,30.632,-6.9281e-07,2,696,696,1,34.8,1724.8,0.5,0
0.42676,5.4708e-05,0,0,0,0,-0.00016941,0.00024741,0.00010942,-5.5374e-12,0.31341,46.087,30.538,-6.4589e-07,2,698,698,1,34.86,1724.9,0.5,0
0.42675,5.4708e-05,0,0,0,0,-0.00016968,0.0002474,0.00010942,-5.3648e-12,0.31473,46.019,30.489,-6.2509e-07,2,699,699,1,34.92,1724.9,0.5,0
0.42674,5.4708e-05,0,0,0,0,-0.00016996,0.00024739,0.00010942,-5.1891e-12,0.31606,45.948,30.44,-6.0393e-07,2,700,700,1,34.98,1725,0.5,0
0.42673,5.4708e-05,0,0,0,0,-0.00017024,0.00024738,0.00010942,-5.0511e-12,0.31738,45.877,30.389,-5.8727e-07,2,701,701,1,35.04,1725,0.5,0
0.42672,5.4708e-05,0,0,0,0,-0.00017053,0.00024736,0.00010942,-4.9587e-12,0.3187,45.804,30.337,-5.7604e-07,2,702,702,1,35.1,1725.1,0.5,0
0.42671,5.4708e-05,0,0,0,0,-0.00017112,0.00024734,0.00010942,-4.6386e-12,0.32133,45.655,30.231,-5.3746e-07,2,704,704,1,35.16,1725.2,0.5,0
0.4267,5.4708e-05,0,0,0,0,-0.00017143,0.00024733,0.00010942,-4.5469e-12,0.32264,45.578,30.176,-5.2631e-07,2,705,705,1,35.22,1725.2,0.5,0
0.42669,5.4708e-05,0,0,0,0,-0.00017174,0.00024731,0.00010942,-4.4581e-12,0.32395,45.5,30.12,-5.155e-07,2,706,706,1,35.28,1725.3,0.5,0
0.42667,5.4708e-05,0,0,0,0,-0.00017206,0.0002473,0.00010942,-4.3566e-12,0.32526,45.42,30.063,-5.0318e-07,2,707,707,1,35.34,1725.3,0.5,0
0.42666,5.4708e-05,0,0,0,0,-0.00017238,0.00024729,0.00010942,-4.2877e-12,0.32657,45.339,30.005,-4.9474e-07,2,708,708,1,35.4,1725.4,0.5,0
0.42665,5.4708e-05,0,0,0,0,-0.00017305,0.00024727,0.00010942,-4.113e-12,0.32917,45.173,29.885,-4.7349e-07,2,710,710,1,35.46,1725.5,0.5,0
0.42664,5.4708e-05,0,0,0,0,-0.00017339,0.00024725,0.00010942,-4.149e-12,0.33047,45.088,29.823,-4.7755e-07,2,711,711,1,35.52,1725.5,0.5,0
0.42663,5.4708e-05,0,0,0,0,-0.00017374,0.00024724,0.00010942,-4.2007e-12,0.33176,45.001,29.76,-4.8352e-07,2,712,712,1,35.58,1725.6,0.5,0
0.42662,5.4708e-05,0,0,0,0,-0.00017409,0.00024723,0.00010942,-4.2581e-12,0.33306,44.913,29.696,-4.9014e-07,2,713,713,1,35.64,1725.6,0.5,0
0.42661,5.4708e-05,0,0,0,0,-0.00017446,0.00024722,0.00010942,-4.3427e-12,0.33435,44.824,29.63,-4.9999e-07,2,714,714,1,35.7,1725.7,0.5,0
0.4266,5.4708e-05,0,0,0,0,-0.0001752,0.00024719,0.00010942,-4.5093e-12,0.33692,44.64,29.496,-5.1945e-07,2,716,716,1,35.76,1725.8,0.5,0
0.42659,5.4708e-05,0,0,0,0,-0.00017558,0.00024718,0.00010942,-4.6562e-12,0.3382,44.546,29.427,-5.3677e-07,2,717,717,1,35.82,1725.8,0.5,0
0.42658,5.4708e-05,0,0,0,0,-0.00017597,0.00024717,0.00010942,-4.7383e-12,0.33948,44.45,29.357,-5.4636e-07,2,718,718,1,35.88,1725.9,0.5,0
0.42657,5.4708e-05,0,0,0,0,-0.00017637,0.00024716,0.00010942,-4.8084e-12,0.34076,44.353,29.285,-5.5453e-07,2,719,719,1,35.94,1725.9,0.5,0
0.42656,5.4708e-05,0,0,0,0,-0.00017677,0.00024714,0.00010942,-4.8472e-12,0.34203,44.254,29.212,-5.5896e-07,2,720,720,1,36,1726,0.5,0
0.42655,5.4708e-05,0,0,0,0,-0.00017759,0.00024712,0.00010942,-4.7437e-12,0.34457,44.052,29.063,-5.4628e-07,2,722,722,1,36.06,1726.1,0.5,0
0.42654,5.4708e-05,0,0,0,0,-0.00017802,0.00024711,0.00010942,-4.7006e-12,0.34583,43.949,28.986,-5.4098e-07,2,723,723,1,36.12,1726.1,0.5,0
0.42653,5.4708e-05,0,0,0,0,-0.00017845,0.00024709,0.00010942,-4.6749e-12,0.3471,43.844,28.908,-5.3775e-07,2,724,724,1,36.18,1726.2,0.5,0
0.42652,5.4708e-05,0,0,0,0,-0.00017888,0.00024708,0.00010942,-4.6431e-12,0.34836,43.738,28.829,-5.3382e-07,2,725,725,1,36.24,1726.2,0.5,0
0.42651,5.4708e-05,0,0,0,0,-0.00017933,0.00024707,0.00010942,-4.5636e-12,0.34961,43.63,28.748,-5.2418e-07,2,726,726,1,36.3,1726.3,0.5,0
0.4265,5.4708e-05,0,0,0,0,-0.00018024,0.00024705,0.00010942,-4.3246e-12,0.35211,43.409,28.583,-4.9537e-07,2,728,728,1,36.36,1726.4,0.5,0
0.42648,5.4708e-05,0,0,0,0,-0.0001807,0.00024703,0.00010942,-4.2003e-12,0.35336,43.296,28.498,-4.8037e-07,2,729,729,1,36.42,1726.4,0.5,0
0.42647,5.4708e-05,0,0,0,0,-0.00018118,0.00024702,0.00010942,-4.0552e-12,0.3546,43.181,28.412,-4.6292e-07,2,730,730,1,36.48,1726.5,0.5,0
0.42646,5.4708e-05,0,0,0,0,-0.00018166,0.00024701,0.00010942,-3.8708e-12,0.35584,43.065,28.325,-4.4079e-07,2,731,731,1,36.54,1726.5,0.5,0
0.42645,5.4708e-05,0,0,0,0,-0.00018215,0.000247,0.00010942,-3.6895e-12,0.35707,42.948,28.236,-4.1901e-07,2,732,732,1,36.6,1726.6,0.5,0
0.42644,5.4708e-05,0,0,0,0,-0.00018314,0.00024697,0.00010942,-3.3227e-12,0.35953,42.707,28.054,-3.7494e-07,2,734,734,1,36.66,1726.7,0.5,0
0.42643,5.4708e-05,0,0,0,0,-0.00018365,0.00024696,0.00010942,-3.1851e-12,0.36076,42.585,27.962,-3.5831e-07,2,735,735,1,36.72,1726.7,0.5,0
0.42642,5.4708e-05,0,0,0,0,-0.00018417,0.00024695,0.00010942,-3.0704e-12,0.36198,42.46,27.867,-3.4443e-07,2,736,736,1,36.78,1726.8,0.5,0
0.42641,5.4708e-05,0,0,0,0,-0.00018469,0.00024693,0.00010942,-2.9725e-12,0.36319,42.334,27.771,-3.3254e-07,2,737,737,1,36.84,1726.8,0.5,0
0.4264,5.4708e-05,0,0,0,0,-0.00018523,0.00024692,0.00010942,-2.9434e-12,0.36441,42.207,27.674,-3.2883e-07,2,738,738,1,36.9,1726.9,0.5,0
0.42639,5.4708e-05,0,0,0,0,-0.00018631,0.0002469,0.00010942,-2.8997e-12,0.36682,41.947,27.475,-3.2304e-07,2,740,740,1,36.96,1727,0.5,0
0.42637,5.4708e-05,0,0,0,0,-0.00018687,0.00024688,0.00010942,-2.9595e-12,0.36802,41.814,27.374,-3.2984e-07,2,741,741,1,37.02,1727,0.5,0
0.42636,5.4708e-05,0,0,0,0,-0.00018743,0.00024687,0.00010942,-2.9938e-12,0.36922,41.68,27.271,-3.3359e-07,2,742,742,1,37.08,1727.1,0.5,0
0.42635,5.4709e-05,0,0,0,0,-0.000188,0.00024686,0.00010942,-2.9937e-12,0.37042,41.544,27.167,-3.332e-07,2,743,743,1,37.14,1727.1,0.5,0
0.42634,5.4709e-05,0,0,0,0,-0.00018858,0.00024685,0.00010942,-2.9665e-12,0.37161,41.406,27.061,-3.2952e-07,2,744,744,1,37.2,1727.2,0.5,0
0.42633,5.4709e-05,0,0,0,0,-0.00018976,0.00024682,0.00010942,-2.9162e-12,0.37397,41.126,26.845,-3.2253e-07,2,746,746,1,37.26,1727.3,0.5,0
0.42632,5.4709e-05,0,0,0,0,-0.00019036,0.00024681,0.00010942,-2.816e-12,0.37515,40.984,26.734,-3.1e-07,2,747,747,1,37.32,1727.3,0.5,0
0.42631,5.4709e-05,0,0,0,0,-0.00019096,0.00024679,0.00010942,-2.7049e-12,0.37632,40.839,26.623,-2.9606e-07,2,748,748,1,37.38,1727.4,0.5,0
0.42629,5.4709e-05,0,0,0,0,-0.00019158,0.00024678,0.00010942,-2.6081e-12,0.37749,40.693,26.51,-2.8376e-07,2,749,749,1,37.44,1727.4,0.5,0
0.42628,5.4709e-05,0,0,0,0,-0.0001922,0.00024677,0.00010942,-2.5524e-12,0.37866,40.546,26.395,-2.7623e-07,2,750,750,1,37.5,1727.5,0.5,0
0.42627,5.4709e-05,0,0,0,0,-0.00019347,0.00024674,0.00010942,-2.4138e-12,0.38098,40.245,26.161,-2.576e-07,2,752,752,1,37.56,1727.6,0.5,0
0.42626,5.4709e-05,0,0,0,0,-0.00019412,0.00024673,0.00010942,-2.3632e-12,0.38213,40.093,26.042,-2.5031e-07,2,753,753,1,37.62,1727.6,0.5,0
0.42625,5.4709e-05,0,0,0,0,-0.00019478,0.00024672,0.00010942,-2.2856e-12,0.38327,39.938,25.921,-2.3966e-07,2,754,754,1,37.68,1727.7,0.5,0
0.42624,5.4709e-05,0,0,0,0,-0.00019544,0.00024671,0.00010942,-2.2406e-12,0.38442,39.782,25.799,-2.3271e-07,2,755,755,1,37.74,1727.7,0.5,0
0.42622,5.4709e-05,0,0,0,0,-0.00019611,0.00024669,0.00010942,-2.2033e-12,0.38555,39.625,25.676,-2.2644e-07,2,756,756,1,37.8,1727.8,0.5,0
0.42621,5.4709e-05,0,0,0,0,-0.00019747,0.00024667,0.00010942,-2.1653e-12,0.38782,39.304,25.424,-2.1763e-07,2,758,758,1,37.86,1727.9,0.5,0
0.4262,5.4709e-05,0,0,0,0,-0.00019816,0.00024665,0.00010942,-2.1137e-12,0.38894,39.141,25.296,-2.0882e-07,2,759,759,1,37.92,1727.9,0.5,0
0.42619,5.4709e-05,0,0,0,0,-0.00019886,0.00024664,0.00010942,-2.0902e-12,0.39006,38.977,25.166,-2.03e-07,2,760,760,1,37.98,1728,0.5,0
0.42618,5.4709e-05,0,0,0,0,-0.00019957,0.00024663,0.00010942,-2.0914e-12,0.39117,38.811,25.035,-1.9973e-07,2,761,761,1,38.04,1728,0.5,0
0.42617,5.4709e-05,0,0,0,0,-0.00020029,0.00024662,0.00010942,-2.0882e-12,0.39228,38.643,24.903,-1.9552e-07,2,762,762,1,38.1,1728.1,0.5,0
0.42615,5.4709e-05,0,0,0,0,-0.00020174,0.00024659,0.00010942,-2.2167e-12,0.39449,38.303,24.633,-2.0171e-07,2,764,764,1,38.16,1728.2,0.5,0
0.42614,5.4709e-05,0,0,0,0,-0.00020248,0.00024658,0.00010942,-2.2959e-12,0.39558,38.13,24.496,-2.0569e-07,2,765,765,1,38.22,1728.2,0.5,0
0.42613,5.4709e-05,0,0,0,0,-0.00020323,0.00024656,0.00010942,-2.3843e-12,0.39667,37.956,24.358,-2.1006e-07,2,766,766,1,38.28,1728.3,0.5,0
0.42612,5.4709e-05,0,0,0,0,-0.00020398,0.00024655,0.00010942,-2.5201e-12,0.39775,37.78,24.218,-2.193e-07,2,767,767,1,38.34,1728.3,0.5,0
0.4261,5.4709e-05,0,0,0,0,-0.00020474,0.00024654,0.00010942,-2.7343e-12,0.39883,37.603,24.076,-2.3711e-07,2,768,768,1,38.4,1728.4,0.5,0
0.42609,5.4709e-05,0,0,0,0,-0.00020629,0.00024651,0.00010942,-3.1944e-12,0.40097,37.243,23.788,-2.7353e-07,2,770,770,1,38.46,1728.5,0.5,0
0.42608,5.4709e-05,0,0,0,0,-0.00020707,0.0002465,0.00010942,-3.4894e-12,0.40204,37.06,23.643,-2.9775e-07,2,771,771,1,38.52,1728.5,0.5,0
0.42607,5.4709e-05,0,0,0,0,-0.00020786,0.00024649,0.00010942,-3.8072e-12,0.40309,36.876,23.495,-3.2337e-07,2,772,772,1,38.58,1728.6,0.5,0
0.42605,5.471e-05,0,0,0,0,-0.00020866,0.00024647,0.00010942,-4.1583e-12,0.40415,36.691,23.346,-3.5147e-07,2,773,773,1,38.64,1728.6,0.5,0
0.42604,5.471e-05,0,0,0,0,-0.00020947,0.00024646,0.00010942,-4.5038e-12,0.40519,36.503,23.196,-3.7725e-07,2,774,774,1,38.7,1728.7,0.5,0
0.42603,5.471e-05,0,0,0,0,-0.00021111,0.00024643,0.00010942,-5.2521e-12,0.40727,36.124,22.89,-4.3022e-07,2,776,776,1,38.76,1728.8,0.5,0
0.42602,5.471e-05,0,0,0,0,-0.00021194,0.00024642,0.00010942,-5.7461e-12,0.4083,35.932,22.736,-4.6773e-07,2,777,777,1,38.82,1728.8,0.5,0
0.426,5.471e-05,0,0,0,0,-0.00021277,0.00024641,0.00010942,-6.263e-12,0.40933,35.739,22.579,-5.0543e-07,2,778,778,1,38.88,1728.9,0.5,0
0.42599,5.471e-05,0,0,0,0,-0.00021362,0.00024639,0.00010942,-6.8232e-12,0.41034,35.544,22.422,-5.455e-07,2,779,779,1,38.94,1728.9,0.5,0
0.42598,5.471e-05,0,0,0,0,-0.00021447,0.00024638,0.00010942,-7.3911e-12,0.41136,35.347,22.262,-5.8347e-07,2,780,780,1,39,1729,0.5,0
0.42597,5.471e-05,0,0,0,0,-0.00021619,0.00024635,0.00010942,-8.66e-12,0.41337,34.949,21.94,-6.6461e-07,2,782,782,1,39.06,1729.1,0.5,0
0.42595,5.471e-05,0,0,0,0,-0.00021706,0.00024634,0.00010942,-9.3748e-12,0.41436,34.748,21.776,-7.0857e-07,2,783,783,1,39.12,1729.1,0.5,0
0.42594,5.471e-05,0,0,0,0,-0.00021794,0.00024633,0.00010942,-1.0174e-11,0.41535,34.545,21.611,-7.5787e-07,2,784,784,1,39.18,1729.2,0.5,0
0.42593,5.471e-05,0,0,0,0,-0.00021883,0.00024631,0.00010942,-1.1092e-11,0.41634,34.341,21.445,-8.1607e-07,2,785,785,1,39.24,1729.2,0.5,0
0.42591,5.471e-05,0,0,0,0,-0.00021973,0.0002463,0.00010942,-1.2183e-11,0.41731,34.135,21.277,-8.8893e-07,2,786,786,1,39.3,1729.3,0.5,0
0.4259,5.471e-05,0,0,0,0,-0.00022154,0.00024627,0.00010942,-1.475e-11,0.41925,33.719,20.937,-1.0606e-06,2,788,788,1,39.36,1729.4,0.5,0
0.42589,5.471e-05,0,0,0,0,-0.00022245,0.00024626,0.00010942,-1.618e-11,0.42021,33.509,20.765,-1.1524e-06,2,789,789,1,39.42,1729.4,0.5,0
0.42587,5.471e-05,0,0,0,0,-0.00022337,0.00024624,0.00010942,-1.7773e-11,0.42116,33.297,20.591,-1.2546e-06,2,790,790,1,39.48,1729.5,0.5,0
0.42586,5.471e-05,0,0,0,0,-0.0002243,0.00024623,0.00010942,-1.9568e-11,0.42211,33.084,20.416,-1.371e-06,2,791,791,1,39.54,1729.5,0.5,0
0.42585,5.471e-05,0,0,0,0,-0.00022524,0.00024622,0.00010942,-2.1569e-11,0.42305,32.87,20.24,-1.5009e-06,2,792,792,1,39.6,1729.6,0.5,0
0.42583,5.471e-05,0,0,0,0,-0.00022713,0.00024619,0.00010942,-2.6127e-11,0.42492,32.436,19.883,-1.7893e-06,2,794,794,1,39.66,1729.7,0.5,0
0.42582,5.4711e-05,0,0,0,0,-0.00022809,0.00024618,0.00010942,-2.8724e-11,0.42584,32.217,19.703,-1.9495e-06,2,795,795,1,39.72,1729.7,0.5,0
0.42581,5.4711e-05,0,0,0,0,-0.00022905,0.00024616,0.00010942,-3.1632e-11,0.42675,31.997,19.521,-2.13e-06,2,796,796,1,39.78,1729.8,0.5,0
0.42579,5.4711e-05,0,0,0,0,-0.00023002,0.00024615,0.00010942,-3.4844e-11,0.42766,31.776,19.338,-2.3284e-06,2,797,797,1,39.84,1729.8,0.5,0
0.42578,5.4711e-05,0,0,0,0,-0.000231,0.00024614,0.00010942,-3.8386e-11,0.42857,31.553,19.154,-2.5455e-06,2,798,798,1,39.9,1729.9,0.5,0
0.42576,5.4711e-05,0,0,0,0,-0.00023297,0.00024611,0.00010942,-4.6848e-11,0.43035,31.103,18.781,-3.0729e-06,2,800,800,1,39.96,1730,0.5,0
0.42575,5.4711e-05,0,0,0,0,-0.00023397,0.00024609,0.00010942,-5.1738e-11,0.43124,30.876,18.592,-3.3743e-06,2,801,801,1,40.02,1730,0.5,0
0.42574,5.4711e-05,0,0,0,0,-0.00023497,0.00024608,0.00010942,-5.7103e-11,0.43211,30.647,18.402,-3.7011e-06,2,802,802,1,40.08,1730.1,0.5,0
0.42572,5.4711e-05,0,0,0,0,-0.00023598,0.00024607,0.00010942,-6.3018e-11,0.43298,30.417,18.211,-4.0589e-06,2,803,803,1,40.14,1730.1,0.5,0
0.42571,5.4711e-05,0,0,0,0,-0.00023699,0.00024605,0.00010942,-6.9553e-11,0.43385,30.186,18.019,-4.4523e-06,2,804,804,1,40.2,1730.2,0.5,0
0.42569,5.4711e-05,0,0,0,0,-0.00023904,0.00024602,0.00010942,-8.4446e-11,0.43555,29.72,17.63,-5.3378e-06,2,806,806,1,40.26,1730.3,0.5,0
0.42568,5.4711e-05,0,0,0,0,-0.00024008,0.00024601,0.00010942,-1.5356e-11,0.43639,29.486,17.434,-5.4561e-07,2,807,807,1,40.32,1730.3,0.5,0
0.42566,5.4711e-05,0,0,0,0,-0.00024143,0.000246,0.00010942,1.0375e-10,0.43723,29.178,17.179,7.4901e-06,2,808,808,1,40.38,1730.4,0.5,0
0.42565,5.4711e-05,0,0,0,0,-0.000243,0.00024598,0.00010942,1.4263e-10,0.43805,28.822,16.884,9.8904e-06,2,809,809,1,40.44,1730.4,0.5,0
0.42564,5.4711e-05,0,0,0,0,-0.00024458,0.00024597,0.00010942,1.2879e-10,0.43887,28.466,16.588,8.7807e-06,2,810,810,1,40.5,1730.5,0.5,0
0.42562,5.4712e-05,0,0,0,0,-0.00024772,0.00024594,0.00010942,1.0538e-10,0.44047,27.753,15.996,6.9436e-06,2,812,812,1,40.56,1730.6,0.5,0
0.42561,5.4712e-05,0,0,0,0,-0.00024929,0.00024593,0.00010942,9.5396e-11,0.44125,27.398,15.699,6.1764e-06,2,813,813,1,40.62,1730.6,0.5,0
0.42559,5.4712e-05,0,0,0,0,-0.00025087,0.00024591,0.00010942,8.6126e-11,0.44203,27.042,15.402,5.4749e-06,2,814,814,1,40.68,1730.7,0.5,0
0.42558,5.4712e-05,0,0,0,0,-0.00025244,0.0002459,0.00010942,7.8253e-11,0.44279,26.686,15.105,4.7689e-06,2,815,815,1,40.74,1730.7,0.5,0
0.42556,5.4712e-05,0,0,0,0,-0.00025402,0.00024588,0.00010942,7.1822e-11,0.44354,26.33,14.808,4.2332e-06,2,816,816,1,40.8,1730.8,0.5,0
0.42554,5.4712e-05,0,0,0,0,-0.00025717,0.00024585,0.00010942,6.1124e-11,0.44502,25.62,14.212,3.3854e-06,2,818,818,1,40.86,1730.9,0.5,0
0.42553,5.4712e-05,0,0,0,0,-0.00025874,0.00024584,0.00010942,5.6719e-11,0.44574,25.265,13.913,3.0505e-06,2,819,819,1,40.92,1730.9,0.5,0
0.42551,5.4712e-05,0,0,0,0,-0.00026032,0.00024582,0.00010942,5.2281e-11,0.44645,24.91,13.615,2.7142e-06,2,820,820,1,40.98,1731,0.5,0
0.4255,5.4712e-05,0,0,0,0,-0.0002619,0.00024581,0.00010942,4.8309e-11,0.44715,24.555,13.316,2.3236e-06,2,821,821,1,41.04,1731,0.5,0
0.42548,5.4712e-05,0,0,0,0,-0.00026347,0.00024579,0.00010942,4.5323e-11,0.44784,24.2,13.017,1.9717e-06,2,822,822,1,41.1,1731.1,0.5,0
0.42547,5.4712e-05,0,0,0,0,-0.00026663,0.00024577,0.00010943,4.038e-11,0.4492,23.49,12.418,1.4684e-06,2,824,824,1,41.16,1731.2,0.5,0
0.42545,5.4713e-05,0,0,0,0,-0.0002682,0.00024575,0.00010943,3.8292e-11,0.44986,23.136,12.118,1.2735e-06,2,825,825,1,41.22,1731.2,0.5,0
0.42543,5.4713e-05,0,0,0,0,-0.00026978,0.00024574,0.00010943,3.6639e-11,0.45051,22.782,11.818,1.1181e-06,2,826,826,1,41.28,1731.3,0.5,0
0.42542,5.4713e-05,0,0,0,0,-0.00027136,0.00024572,0.00010943,3.4639e-11,0.45115,22.427,11.517,9.4764e-07,2,827,827,1,41.34,1731.3,0.5,0
0.4254,5.4713e-05,0,0,0,0,-0.00027294,0.00024571,0.00010943,3.307e-11,0.45178,22.073,11.217,7.4823e-07,2,828,828,1,41.4,1731.4,0.5,0
0.42539,5.4713e-05,0,0,0,0,-0.0002761,0.00024568,0.00010943,3.2011e-11,0.453,21.365,10.615,5.7212e-07,2,830,830,1,41.46,1731.5,0.5,0
0.42537,5.4713e-05,0,0,0,0,-0.00027768,0.00024566,0.00010943,3.1385e-11,0.4536,21.011,10.313,5.1043e-07,2,831,831,1,41.52,1731.5,0.5,0
0.42535,5.4713e-05,0,0,0,0,-0.00027926,0.00024565,0.00010943,3.0583e-11,0.45419,20.658,10.012,4.5361e-07,2,832,832,1,41.58,1731.6,0.5,0
0.42534,5.4713e-05,0,0,0,0,-0.00028084,0.00024563,0.00010943,2.9603e-11,0.45477,20.304,9.7095,3.9754e-07,2,833,833,1,41.64,1731.6,0.5,0
0.42532,5.4713e-05,0,0,0,0,-0.00028242,0.00024561,0.00010943,2.7792e-11,0.45534,19.951,9.4071,2.9542e-07,2,834,834,1,41.7,1731.7,0.5,0
0.4253,5.4713e-05,0,0,0,0,-0.00028558,0.00024558,0.00010943,2.485e-11,0.45644,19.244,8.8025,4.928e-08,2,836,836,1,41.76,1731.8,0.5,0
0.42528,5.4714e-05,0,0,0,0,-0.00028716,0.00024557,0.00010943,2.3853e-11,0.45698,18.891,8.4998,-1.6318e-08,2,837,837,1,41.82,1731.8,0.5,0
0.42527,5.4714e-05,0,0,0,0,-0.00028874,0.00024555,0.00010943,2.2888e-11,0.45751,18.538,8.1967,-6.8803e-08,2,838,838,1,41.88,1731.9,0.5,0
0.42525,5.4714e-05,0,0,0,0,-0.00029033,0.00024554,0.00010943,2.1993e-11,0.45802,18.185,7.8934,-1.0736e-07,2,839,839,1,41.94,1731.9,0.5,0
0.42523,5.4714e-05,0,0,0,0,-0.00029191,0.00024552,0.00010943,2.1266e-11,0.45853,17.832,7.5897,-1.2223e-07,2,840,840,1,42,1732,0.5,0
0.42521,5.4714e-05,0,0,0,0,-0.00029507,0.00024549,0.00010943,1.8849e-11,0.45951,17.127,6.9818,-1.9232e-07,2,842,842,1,42.06,1732.1,0.5,0
0.4252,5.4714e-05,0,0,0,0,-0.00029666,0.00024548,0.00010943,1.8135e-11,0.45999,16.775,6.6778,-2.5557e-07,2,843,843,1,42.12,1732.1,0.5,0
0.42518,5.4714e-05,0,0,0,0,-0.00029824,0.00024546,0.00010943,1.7822e-11,0.46046,16.422,6.3736,-2.5452e-07,2,844,844,1,42.18,1732.2,0.5,0
0.42516,5.4714e-05,0,0,0,0,-0.00029982,0.00024544,0.00010943,1.7639e-11,0.46091,16.07,6.069,-2.3853e-07,2,845,845,1,42.24,1732.2,0.5,0
0.42514,5.4714e-05,0,0,0,0,-0.00030141,0.00024543,0.00010943,1.761e-11,0.46136,15.718,5.7642,-2.0809e-07,2,846,846,1,42.3,1732.3,0.5,0
0.42512,5.4714e-05,0,0,0,0,-0.00030457,0.0002454,0.00010943,1.7868e-11,0.46222,15.014,5.1536,-1.4686e-07,2,848,848,1,42.36,1732.4,0.5,0
0.42511,5.4715e-05,0,0,0,0,-0.00030616,0.00024538,0.00010943,1.7507e-11,0.46263,14.662,4.848,-1.5329e-07,2,849,849,1,42.42,1732.4,0.5,0
0.42509,5.4715e-05,0,0,0,0,-0.00030774,0.00024537,0.00010943,1.7071e-11,0.46304,14.31,4.5425,-2.1039e-07,2,850,850,1,42.48,1732.5,0.5,0
0.42507,5.4715e-05,0,0,0,0,-0.00030933,0.00024535,0.00010943,1.7293e-11,0.46343,13.959,4.2368,-2.4965e-07,2,851,851,1,42.54,1732.5,0.5,0
0.42505,5.4715e-05,0,0,0,0,-0.00031091,0.00024533,0.00010943,1.7712e-11,0.46382,13.607,3.9308,-2.327e-07,2,852,852,1,42.6,1732.6,0.5,0
0.42503,5.4715e-05,0,0,0,0,-0.00031408,0.0002453,0.00010943,1.8817e-11,0.46455,12.904,3.3182,-1.3078e-07,2,854,854,1,42.66,1732.7,0.5,0
0.42501,5.4715e-05,0,0,0,0,-0.00031567,0.00024528,0.00010943,1.9388e-11,0.46491,12.553,3.0114,-6.887e-08,2,855,855,1,42.72,1732.7,0.5,0
0.42499,5.4715e-05,0,0,0,0,-0.00031726,0.00024527,0.00010943,1.9953e-11,0.46525,12.202,2.7044,-3.4362e-09,2,856,856,1,42.78,1732.8,0.5,0
0.42497,5.4715e-05,0,0,0,0,-0.00031884,0.00024525,0.00010943,1.9928e-11,0.46558,11.851,2.3972,4.0411e-08,2,857,857,1,42.84,1732.8,0.5,0
0.42496,5.4715e-05,0,0,0,0,-0.00032043,0.00024524,0.00010943,1.9606e-11,0.46591,11.5,2.0901,2.5169e-08,2,858,858,1,42.9,1732.9,0.5,0
0.42494,5.4715e-05,0,0,0,0,-0.0003236,0.0002452,0.00010943,1.9858e-11,0.46652,10.798,1.4754,-2.3783e-08,2,860,860,1,42.96,1733,0.5,0
0.42492,5.4716e-05,0,0,0,0,-0.00032519,0.00024519,0.00010943,1.9928e-11,0.46682,10.448,1.1676,-1.9034e-08,2,861,861,1,43.02,1733,0.5,0
0.4249,5.4716e-05,0,0,0,0,-0.00032677,0.00024517,0.00010943,1.9955e-11,0.4671,10.097,0.85967,-9.6651e-09,2,862,862,1,43.08,1733.1,0.5,0
0.42488,5.4716e-05,0,0,0,0,-0.00032836,0.00024515,0.00010943,1.9957e-11,0.46737,9.7468,0.55146,4.7167e-09,2,863,863,1,43.14,1733.1,0.5,0
0.42486,5.4716e-05,0,0,0,0,-0.00032995,0.00024514,0.00010943,1.9914e-11,0.46764,9.3965,0.24301,2.3022e-08,2,864,864,1,43.2,1733.2,0.5,0
0.42484,5.4716e-05,0,0,0,0,-0.00033312,0.0002451,0.00010943,1.8906e-11,0.46813,8.6963,-0.37447,4.5439e-08,2,866,866,1,43.26,1733.3,0.5,0
0.42482,5.4716e-05,0,0,0,0,-0.00033471,0.00024509,0.00010943,1.8278e-11,0.46836,8.3461,-0.68312,-1.4374e-08,2,867,867,1,43.32,1733.3,0.5,0
0.4248,5.4716e-05,0,0,0,0,-0.0003363,0.00024507,0.00010943,1.8193e-11,0.46859,7.9961,-0.992,-2.161e-08,2,868,868,1,43.38,1733.4,0.5,0
0.42478,5.4716e-05,0,0,0,0,-0.00033789,0.00024505,0.00010943,1.8131e-11,0.4688,7.6462,-1.3011,-3.3018e-08,2,869,869,1,43.44,1733.4,0.5,0
0.42476,5.4716e-05,0,0,0,0,-0.00033948,0.00024504,0.00010943,1.8089e-11,0.469,7.2964,-1.6105,-5.339e-08,2,870,870,1,43.5,1733.5,0.5,0
0.42474,5.4716e-05,0,0,0,0,-0.00034265,0.000245,0.00010943,1.8046e-11,0.46937,6.5972,-2.2298,-1.1182e-07,2,872,872,1,43.56,1733.6,0.5,0
0.42472,5.4717e-05,0,0,0,0,-0.00034424,0.00024499,0.00010943,1.8162e-11,0.46954,6.2478,-2.5398,-1.2775e-07,2,873,873,1,43.62,1733.6,0.5,0
0.4247,5.4717e-05,0,0,0,0,-0.00034583,0.00024497,0.00010943,1.8111e-11,0.46971,5.8985,-2.85,-1.5207e-07,2,874,874,1,43.68,1733.7,0.5,0
0.42467,5.4717e-05,0,0,0,0,-0.00034742,0.00024495,0.00010943,1.7622e-11,0.46986,5.5492,-3.1603,-1.8809e-07,2,875,875,1,43.74,1733.7,0.5,0
0.42465,5.4717e-05,0,0,0,0,-0.00034901,0.00024494,0.00010943,1.7303e-11,0.47,5.1999,-3.4705,-2.6853e-07,2,876,876,1,43.8,1733.8,0.5,0
0.42463,5.4717e-05,0,0,0,0,-0.00035219,0.0002449,0.00010943,1.7357e-11,0.47025,4.5016,-4.0914,-3.2698e-07,2,878,878,1,43.86,1733.9,0.5,0
0.42461,5.4717e-05,0,0,0,0,-0.00035378,0.00024488,0.00010943,1.733e-11,0.47036,4.1526,-4.4022,-3.4907e-07,2,879,879,1,43.92,1733.9,0.5,0
0.42459,5.4717e-05,0,0,0,0,-0.00035537,0.00024487,0.00010943,1.7275e-11,0.47046,3.8037,-4.7132,-3.6965e-07,2,880,880,1,43.98,1734,0.5,0
0.42457,5.4717e-05,0,0,0,0,-0.00035696,0.00024485,0.00010943,1.7256e-11,0.47056,3.455,-5.0245,-3.7961e-07,2,881,881,1,44.04,1734,0.5,0
0.42455,5.4717e-05,0,0,0,0,-0.00035855,0.00024483,0.00010943,1.7324e-11,0.47064,3.1064,-5.3359,-3.7297e-07,2,882,882,1,44.1,1734.1,0.5,0
0.42453,5.4717e-05,0,0,0,0,-0.00036173,0.0002448,0.00010944,1.7256e-11,0.47077,2.4095,-5.9593,-3.3726e-07,2,884,884,1,44.16,1734.2,0.5,0
0.4245,5.4718e-05,0,0,0,0,-0.00036332,0.00024478,0.00010944,1.6981e-11,0.47082,2.061,-6.2709,-3.9194e-07,2,885,885,1,44.22,1734.2,0.5,0
0.42448,5.4718e-05,0,0,0,0,-0.00036491,0.00024476,0.00010944,1.7334e-11,0.47086,1.7125,-6.5826,-4.1514e-07,2,886,886,1,44.28,1734.3,0.5,0
0.42446,5.4718e-05,0,0,0,0,-0.0003665,0.00024474,0.00010944,1.7769e-11,0.47089,1.3642,-6.8946,-4.1496e-07,2,887,887,1,44.34,1734.3,0.5,0
0.42444,5.4718e-05,0,0,0,0,-0.00036809,0.00024473,0.00010944,1.8273e-11,0.47091,1.016,-7.2067,-4.0357e-07,2,888,888,1,44.4,1734.4,0.5,0
0.42442,5.4718e-05,0,0,0,0,-0.00037128,0.00024469,0.00010944,1.9392e-11,0.47092,0.31996,-7.8315,-3.2103e-07,2,890,890,1,44.46,1734.5,0.5,0
0.42439,5.4718e-05,0,0,0,0,-0.00037287,0.00024467,0.00010944,1.9897e-11,0.47091,-0.027899,-8.1442,-2.652e-07,2,891,891,1,44.52,1734.5,0.5,0
0.42437,5.4718e-05,0,0,0,0,-0.00037446,0.00024466,0.00010944,2.0393e-11,0.47089,-0.37564,-8.4571,-2.0031e-07,2,892,892,1,44.58,1734.6,0.5,0
0.42435,5.4718e-05,0,0,0,0,-0.00037605,0.00024464,0.00010944,2.0821e-11,0.47086,-0.72327,-8.7702,-1.3539e-07,2,893,893,1,44.64,1734.6,0.5,0
0.42433,5.4718e-05,0,0,0,0,-0.00037764,0.00024462,0.00010944,2.0738e-11,0.47083,-1.0708,-9.0834,-9.7149e-08,2,894,894,1,44.7,1734.7,0.5,0
0.4243,5.4719e-05,0,0,0,0,-0.00038083,0.00024458,0.00010944,2.1369e-11,0.47072,-1.7661,-9.7095,-1.3284e-07,2,896,896,1,44.76,1734.8,0.5,0
0.42428,5.4719e-05,0,0,0,0,-0.00038242,0.00024457,0.00010944,2.2013e-11,0.47065,-2.1136,-10.023,-1.1564e-07,2,897,897,1,44.82,1734.8,0.5,0
0.42426,5.4719e-05,0,0,0,0,-0.00038401,0.00024455,0.00010944,2.2781e-11,0.47057,-2.461,-10.336,-7.7246e-08,2,898,898,1,44.88,1734.9,0.5,0
0.42423,5.4719e-05,0,0,0,0,-0.0003856,0.00024453,0.00010944,2.3538e-11,0.47048,-2.8082,-10.65,-4.0018e-08,2,899,899,1,44.94,1734.9,0.5,0
0.42421,5.4719e-05,0,0,0,0,-0.0003872,0.00024451,0.00010944,2.4218e-11,0.47038,-3.1554,-10.964,-1.2665e-08,2,900,900,1,45,1735,0.5,0
0.42419,5.4719e-05,0,0,0,0,-0.00039038,0.00024447,0.00010944,2.5326e-11,0.47015,-3.8494,-11.592,-4.3644e-11,2,902,902,1,45.06,1735.1,0.5,0
0.42416,5.4719e-05,0,0,0,0,-0.00039197,0.00024446,0.00010944,2.5828e-11,0.47002,-4.1962,-11.907,2.189e-10,2,903,903,1,45.12,1735.1,0.5,0
0.42414,5.4719e-05,0,0,0,0,-0.00039357,0.00024444,0.00010944,2.5788e-11,0.46988,-4.5429,-12.221,-2.6169e-08,2,904,904,1,45.18,1735.2,0.5,0
0.42412,5.4719e-05,0,0,0,0,-0.00039516,0.00024442,0.00010944,2.5577e-11,0.46973,-4.8898,-12.536,-7.5204e-08,2,905,905,1,45.24,1735.2,0.5,0
0.42409,5.4719e-05,0,0,0,0,-0.00039675,0.0002444,0.00010944,2.5686e-11,0.46957,-5.2366,-12.85,-1.3636e-07,2,906,906,1,45.3,1735.3,0.5,0
0.42407,5.472e-05,0,0,0,0,-0.00039994,0.00024436,0.00010944,2.5669e-11,0.46922,-5.9299,-13.479,-2.2115e-07,2,908,908,1,45.36,1735.4,0.5,0
0.42405,5.472e-05,0,0,0,0,-0.00040153,0.00024435,0.00010944,2.5486e-11,0.46903,-6.2763,-13.794,-2.516e-07,2,909,909,1,45.42,1735.4,0.5,0
0.42402,5.472e-05,0,0,0,0,-0.00040313,0.00024433,0.00010944,2.5137e-11,0.46883,-6.6227,-14.11,-2.8277e-07,2,910,910,1,45.48,1735.5,0.5,0
0.424,5.472e-05,0,0,0,0,-0.00040472,0.00024431,0.00010944,2.476e-11,0.46862,-6.969,-14.425,-3.0935e-07,2,911,911,1,45.54,1735.5,0.5,0
0.42397,5.472e-05,0,0,0,0,-0.00040631,0.00024429,0.00010944,2.4294e-11,0.46841,-7.3152,-14.74,-3.3845e-07,2,912,912,1,45.6,1735.6,0.5,0
0.42395,5.472e-05,0,0,0,0,-0.0004095,0.00024425,0.00010944,2.3396e-11,0.46794,-8.0072,-15.372,-4.024e-07,2,914,914,1,45.66,1735.7,0.5,0
0.42392,5.472e-05,0,0,0,0,-0.00041109,0.00024423,0.00010944,2.259e-11,0.46769,-8.3531,-15.687,-4.3715e-07,2,915,915,1,45.72,1735.7,0.5,0
0.4239,5.472e-05,0,0,0,0,-0.00041269,0.00024421,0.00010944,2.1807e-11,0.46743,-8.6992,-16.003,-4.8806e-07,2,916,916,1,45.78,1735.8,0.5,0
0.42387,5.472e-05,0,0,0,0,-0.00041428,0.0002442,0.00010944,2.1573e-11,0.46716,-9.0451,-16.319,-5.216e-07,2,917,917,1,45.84,1735.8,0.5,0
0.42385,5.472e-05,0,0,0,0,-0.00041588,0.00024418,0.00010944,2.1463e-11,0.46688,-9.391,-16.635,-5.2693e-07,2,918,918,1,45.9,1735.9,0.5,0
0.42382,5.4721e-05,0,0,0,0,-0.00041906,0.00024414,0.00010944,2.1526e-11,0.46629,-10.082,-17.267,-4.7063e-07,2,920,920,1,45.96,1736,0.5,0
0.4238,5.4721e-05,0,0,0,0,-0.00042066,0.00024412,0.00010944,2.1681e-11,0.46598,-10.428,-17.584,-4.1942e-07,2,921,921,1,46.02,1736,0.5,0
0.42377,5.4721e-05,0,0,0,0,-0.00042225,0.0002441,0.00010944,2.1858e-11,0.46567,-10.773,-17.9,-3.6764e-07,2,922,922,1,46.08,1736.1,0.5,0
0.42375,5.4721e-05,0,0,0,0,-0.00042385,0.00024408,0.00010944,2.2079e-11,0.46534,-11.119,-18.217,-3.2424e-07,2,923,923,1,46.14,1736.1,0.5,0
0.42372,5.4721e-05,0,0,0,0,-0.00042544,0.00024406,0.00010944,2.231e-11,0.465,-11.464,-18.534,-2.9196e-07,2,924,924,1,46.2,1736.2,0.5,0
0.4237,5.4721e-05,0,0,0,0,-0.00042863,0.00024402,0.00010944,2.2717e-11,0.46429,-12.154,-19.168,-2.4186e-07,2,926,926,1,46.26,1736.3,0.5,0
0.42367,5.4721e-05,0,0,0,0,-0.00043023,0.000244,0.00010944,2.2583e-11,0.46392,-12.5,-19.485,-2.2432e-07,2,927,927,1,46.32,1736.3,0.5,0
0.42365,5.4721e-05,0,0,0,0,-0.00043182,0.00024398,0.00010944,2.2553e-11,0.46355,-12.845,-19.802,-2.5542e-07,2,928,928,1,46.38,1736.4,0.5,0
0.42362,5.4721e-05,0,0,0,0,-0.00043341,0.00024396,0.00010944,2.2855e-11,0.46316,-13.19,-20.119,-2.5767e-07,2,929,929,1,46.44,1736.4,0.5,0
0.42359,5.4722e-05,0,0,0,0,-0.00043501,0.00024394,0.00010944,2.3221e-11,0.46276,-13.535,-20.436,-2.4423e-07,2,930,930,1,46.5,1736.5,0.5,0
0.42357,5.4722e-05,0,0,0,0,-0.0004382,0.00024391,0.00010944,2.387e-11,0.46193,-14.224,-21.071,-1.8866e-07,2,932,932,1,46.56,1736.6,0.5,0
0.42354,5.4722e-05,0,0,0,0,-0.00043979,0.00024389,0.00010944,2.4171e-11,0.4615,-14.569,-21.389,-1.5425e-07,2,933,933,1,46.62,1736.6,0.5,0
0.42351,5.4722e-05,0,0,0,0,-0.00044139,0.00024387,0.00010944,2.4522e-11,0.46107,-14.914,-21.706,-1.1257e-07,2,934,934,1,46.68,1736.7,0.5,0
0.42349,5.4722e-05,0,0,0,0,-0.00044298,0.00024385,0.00010944,2.4835e-11,0.46062,-15.258,-22.024,-7.5608e-08,2,935,935,1,46.74,1736.7,0.5,0
0.42346,5.4722e-05,0,0,0,0,-0.00044458,0.00024383,0.00010944,2.5098e-11,0.46016,-15.603,-22.342,-4.3819e-08,2,936,936,1,46.8,1736.8,0.5,0
0.42343,5.4722e-05,0,0,0,0,-0.00044777,0.00024379,0.00010944,2.5515e-11,0.45922,-16.291,-22.979,2.0511e-08,2,938,938,1,46.86,1736.9,0.5,0
0.42341,5.4722e-05,0,0,0,0,-0.00044937,0.00024377,0.00010944,2.5222e-11,0.45873,-16.636,-23.297,4.5367e-08,2,939,939,1,46.92,1736.9,0.5,0
0.42338,5.4722e-05,0,0,0,0,-0.00045096,0.00024375,0.00010944,2.493e-11,0.45823,-16.98,-23.615,2.423e-08,2,940,940,1,46.98,1737,0.5,0
0.42335,5.4722e-05,0,0,0,0,-0.00045256,0.00024373,0.00010944,2.4924e-11,0.45773,-17.324,-23.934,2.2574e-08,2,941,941,1,47.04,1737,0.5,0
0.42333,5.4723e-05,0,0,0,0,-0.00045415,0.00024371,0.00010945,2.4807e-11,0.45721,-17.669,-24.252,2.3142e-08,2,942,942,1,47.1,1737.1,0.5,0
0.4233,5.4723e-05,0,0,0,0,-0.00045734,0.00024367,0.00010945,2.4386e-11,0.45615,-18.357,-24.889,3.2257e-08,2,944,944,1,47.16,1737.2,0.5,0
0.42327,5.4723e-05,0,0,0,0,-0.00045894,0.00024365,0.00010945,2.4074e-11,0.4556,-18.701,-25.208,2.6849e-08,2,945,945,1,47.22,1737.2,0.5,0
0.42324,5.4723e-05,0,0,0,0,-0.00046053,0.00024363,0.00010945,2.3773e-11,0.45504,-19.044,-25.527,2.2954e-08,2,946,946,1,47.28,1737.3,0.5,0
0.42322,5.4723e-05,0,0,0,0,-0.00046213,0.00024361,0.00010945,2.3424e-11,0.45448,-19.388,-25.846,1.1494e-08,2,947,947,1,47.34,1737.3,0.5,0
0.42319,5.4723e-05,0,0,0,0,-0.00046373,0.00024359,0.00010945,2.3054e-11,0.4539,-19.732,-26.165,-5.4711e-09,2,948,948,1,47.4,1737.4,0.5,0
0.42316,5.4723e-05,0,0,0,0,-0.00046692,0.00024354,0.00010945,2.2317e-11,0.45272,-20.419,-26.804,-3.6911e-08,2,950,950,1,47.46,1737.5,0.5,0
0.42313,5.4723e-05,0,0,0,0,-0.00046851,0.00024352,0.00010945,2.1776e-11,0.45211,-20.762,-27.123,-5.0715e-08,2,951,951,1,47.52,1737.5,0.5,0
0.4231,5.4723e-05,0,0,0,0,-0.00047011,0.0002435,0.00010945,2.0971e-11,0.4515,-21.106,-27.443,-6.7947e-08,2,952,952,1,47.58,1737.6,0.5,0
0.42308,5.4723e-05,0,0,0,0,-0.00047171,0.00024348,0.00010945,2.0336e-11,0.45087,-21.449,-27.762,-1.3105e-07,2,953,953,1,47.64,1737.6,0.5,0
0.42305,5.4724e-05,0,0,0,0,-0.0004733,0.00024346,0.00010945,1.9993e-11,0.45024,-21.793,-28.081,-1.8105e-07,2,954,954,1,47.7,1737.7,0.5,0
0.42302,5.4724e-05,0,0,0,0,-0.00047649,0.00024342,0.00010945,1.9629e-11,0.44894,-22.479,-28.721,-2.6016e-07,2,956,956,1,47.76,1737.8,0.5,0
0.42299,5.4724e-05,0,0,0,0,-0.00047809,0.0002434,0.00010945,1.9511e-11,0.44827,-22.823,-29.041,-3.0096e-07,2,957,957,1,47.82,1737.8,0.5,0
0.42296,5.4724e-05,0,0,0,0,-0.00047969,0.00024338,0.00010945,1.9496e-11,0.4476,-23.166,-29.361,-3.3604e-07,2,958,958,1,47.88,1737.9,0.5,0
0.42293,5.4724e-05,0,0,0,0,-0.00048128,0.00024336,0.00010945,1.9459e-11,0.44692,-23.509,-29.681,-3.8373e-07,2,959,959,1,47.94,1737.9,0.5,0
0.4229,5.4724e-05,0,0,0,0,-0.00048288,0.00024334,0.00010945,1.9497e-11,0.44622,-23.852,-30.001,-4.2699e-07,2,960,960,1,48,1738,0.5,0
0.42287,5.4724e-05,0,0,0,0,-0.00048607,0.0002433,0.00010945,1.9916e-11,0.4448,-24.537,-30.641,-4.7512e-07,2,962,962,1,48.06,1738.1,0.5,0
0.42285,5.4724e-05,0,0,0,0,-0.00048767,0.00024328,0.00010945,2.0239e-11,0.44408,-24.88,-30.962,-4.8049e-07,2,963,963,1,48.12,1738.1,0.5,0
0.42282,5.4724e-05,0,0,0,0,-0.00048926,0.00024325,0.00010945,2.0651e-11,0.44335,-25.223,-31.282,-4.7098e-07,2,964,964,1,48.18,1738.2,0.5,0
0.42279,5.4725e-05,0,0,0,0,-0.00049086,0.00024323,0.00010945,2.0891e-11,0.4426,-25.565,-31.603,-4.5146e-07,2,965,965,1,48.24,1738.2,0.5,0
0.42276,5.4725e-05,0,0,0,0,-0.00049246,0.00024321,0.00010945,2.1075e-11,0.44185,-25.908,-31.923,-4.3522e-07,2,966,966,1,48.3,1738.3,0.5,0
0.42273,5.4725e-05,0,0,0,0,-0.00049565,0.00024317,0.00010945,2.228e-11,0.44032,-26.593,-32.565,-4.2599e-07,2,968,968,1,48.36,1738.4,0.5,0
0.4227,5.4725e-05,0,0,0,0,-0.00049725,0.00024315,0.00010945,2.302e-11,0.43953,-26.936,-32.885,-4.053e-07,2,969,969,1,48.42,1738.4,0.5,0
0.42267,5.4725e-05,0,0,0,0,-0.00049884,0.00024313,0.00010945,2.375e-11,0.43874,-27.278,-33.206,-3.9269e-07,2,970,970,1,48.48,1738.5,0.5,0
0.42264,5.4725e-05,0,0,0,0,-0.00050044,0.00024311,0.00010945,2.448e-11,0.43794,-27.621,-33.527,-3.8415e-07,2,971,971,1,48.54,1738.5,0.5,0
0.42261,5.4725e-05,0,0,0,0,-0.00050204,0.00024308,0.00010945,2.5107e-11,0.43713,-27.963,-33.848,-3.7839e-07,2,972,972,1,48.6,1738.6,0.5,0
0.42258,5.4725e-05,0,0,0,0,-0.00050523,0.00024304,0.00010945,2.6134e-11,0.43547,-28.647,-34.491,-3.7857e-07,2,974,974,1,48.66,1738.7,0.5,0
0.42255,5.4725e-05,0,0,0,0,-0.00050683,0.00024302,0.00010945,2.6539e-11,0.43463,-28.989,-34.812,-3.8203e-07,2,975,975,1,48.72,1738.7,0.5,0
0.42252,5.4725e-05,0,0,0,0,-0.00050842,0.000243,0.00010945,2.6915e-11,0.43378,-29.331,-35.133,-3.7861e-07,2,976,976,1,48.78,1738.8,0.5,0
0.42249,5.4726e-05,0,0,0,0,-0.00051002,0.00024298,0.00010945,2.7209e-11,0.43292,-29.673,-35.455,-3.7411e-07,2,977,977,1,48.84,1738.8,0.5,0
0.42246,5.4726e-05,0,0,0,0,-0.00051162,0.00024295,0.00010945,2.7348e-11,0.43205,-30.015,-35.776,-3.738e-07,2,978,978,1,48.9,1738.9,0.5,0
0.42242,5.4726e-05,0,0,0,0,-0.00051481,0.00024291,0.00010945,2.6778e-11,0.43028,-30.699,-36.42,-3.654e-07,2,980,980,1,48.96,1739,0.5,0
0.42239,5.4726e-05,0,0,0,0,-0.00051641,0.00024289,0.00010945,2.6281e-11,0.42938,-31.041,-36.741,-4.0067e-07,2,981,981,1,49.02,1739,0.5,0
0.42236,5.4726e-05,0,0,0,0,-0.000518,0.00024287,0.00010945,2.5976e-11,0.42847,-31.383,-37.063,-4.1952e-07,2,982,982,1,49.08,1739.1,0.5,0
0.42233,5.4726e-05,0,0,0,0,-0.0005196,0.00024285,0.00010945,2.5564e-11,0.42755,-31.724,-37.385,-4.3592e-07,2,983,983,1,49.14,1739.1,0.5,0
0.4223,5.4726e-05,0,0,0,0,-0.0005212,0.00024282,0.00010945,2.5128e-11,0.42662,-32.066,-37.707,-4.4883e-07,2,984,984,1,49.2,1739.2,0.5,0
0.42227,5.4726e-05,0,0,0,0,-0.00052439,0.00024278,0.00010945,2.4259e-11,0.42473,-32.749,-38.351,-4.5234e-07,2,986,986,1,49.26,1739.3,0.5,0
0.42224,5.4726e-05,0,0,0,0,-0.00052599,0.00024276,0.00010945,2.3982e-11,0.42377,-33.09,-38.673,-4.255e-07,2,987,987,1,49.32,1739.3,0.5,0
0.42221,5.4727e-05,0,0,0,0,-0.00052758,0.00024274,0.00010945,2.3705e-11,0.42281,-33.432,-38.995,-3.923e-07,2,988,988,1,49.38,1739.4,0.5,0
0.42217,5.4727e-05,0,0,0,0,-0.00052918,0.00024271,0.00010945,2.3353e-11,0.42183,-33.773,-39.317,-3.6097e-07,2,989,989,1,49.44,1739.4,0.5,0
0.42214,5.4727e-05,0,0,0,0,-0.00053078,0.00024269,0.00010945,2.2949e-11,0.42084,-34.114,-39.64,-3.3399e-07,2,990,990,1,49.5,1739.5,0.5,0
0.42211,5.4727e-05,0,0,0,0,-0.00053397,0.00024265,0.00010945,2.1861e-11,0.41884,-34.797,-40.285,-2.988e-07,2,992,992,1,49.56,1739.6,0.5,0
0.42208,5.4727e-05,0,0,0,0,-0.00053557,0.00024262,0.00010945,2.1104e-11,0.41782,-35.138,-40.607,-2.9995e-07,2,993,993,1,49.62,1739.6,0.5,0
0.42205,5.4727e-05,0,0,0,0,-0.00053716,0.0002426,0.00010945,2.0255e-11,0.41679,-35.479,-40.93,-2.9113e-07,2,994,994,1,49.68,1739.7,0.5,0
0.42201,5.4727e-05,0,0,0,0,-0.00053876,0.00024258,0.00010945,1.9234e-11,0.41576,-35.82,-41.253,-2.7235e-07,2,995,995,1,49.74,1739.7,0.5,0
0.42198,5.4727e-05,0,0,0,0,-0.00054036,0.00024256,0.00010945,1.8403e-11,0.41471,-36.161,-41.575,-2.769e-07,2,996,996,1,49.8,1739.8,0.5,0
0.42195,5.4727e-05,0,0,0,0,-0.00054355,0.00024251,0.00010945,1.7268e-11,0.41259,-36.843,-42.221,-2.7602e-07,2,998,998,1,49.86,1739.9,0.5,0
0.42192,5.4728e-05,0,0,0,0,-0.00054515,0.00024249,0.00010946,1.6808e-11,0.41151,-37.184,-42.544,-2.6607e-07,2,999,999,1,49.92,1739.9,0.5,0
0.42188,5.4728e-05,0,0,0,0,-0.00054675,0.00024247,0.00010946,1.6459e-11,0.41043,-37.525,-42.866,-2.5452e-07,2,1000,1000,1,49.98,1740,0.5,0
0.42185,5.4728e-05,0,0,0,0,-0.00054834,0.00024244,0.00010946,1.6245e-11,0.40933,-37.865,-43.189,-2.4135e-07,2,1001,1001,1,50.04,1740,0.5,0
0.42182,5.4728e-05,0,0,0,0,-0.00054994,0.00024242,0.00010946,1.6129e-11,0.40823,-38.206,-43.513,-2.2789e-07,2,1002,1002,1,50.1,1740.1,0.5,0
0.42178,5.4728e-05,0,0,0,0,-0.00055313,0.00024238,0.00010946,1.6037e-11,0.40599,-38.887,-44.159,-2.1637e-07,2,1004,1004,1,50.16,1740.2,0.5,0
0.42175,5.4728e-05,0,0,0,0,-0.00055473,0.00024235,0.00010946,1.6018e-11,0.40485,-39.228,-44.482,-2.1377e-07,2,1005,1005,1,50.22,1740.2,0.5,0
0.42172,5.4728e-05,0,0,0,0,-0.00055633,0.00024233,0.00010946,1.5979e-11,0.40371,-39.568,-44.806,-2.0915e-07,2,1006,1006,1,50.28,1740.3,0.5,0
0.42168,5.4728e-05,0,0,0,0,-0.00055793,0.00024231,0.00010946,1.5998e-11,0.40256,-39.908,-45.129,-1.9183e-07,2,1007,1007,1,50.34,1740.3,0.5,0
0.42165,5.4728e-05,0,0,0,0,-0.00055952,0.00024228,0.00010946,1.6116e-11,0.40139,-40.249,-45.453,-1.6131e-07,2,1008,1008,1,50.4,1740.4,0.5,0
0.42162,5.4728e-05,0,0,0,0,-0.00056272,0.00024224,0.00010946,1.6198e-11,0.39904,-40.929,-46.1,-8.5242e-08,2,1010,1010,1,50.46,1740.5,0.5,0
0.42158,5.4729e-05,0,0,0,0,-0.00056431,0.00024221,0.00010946,1.6129e-11,0.39785,-41.27,-46.423,-3.3276e-08,2,1011,1011,1,50.52,1740.5,0.5,0
0.42155,5.4729e-05,0,0,0,0,-0.00056591,0.00024219,0.00010946,1.6212e-11,0.39664,-41.61,-46.747,-1.3699e-08,2,1012,1012,1,50.58,1740.6,0.5,0
0.42152,5.4729e-05,0,0,0,0,-0.00056751,0.00024217,0.00010946,1.6499e-11,0.39543,-41.95,-47.071,7.245e-09,2,1013,1013,1,50.64,1740.6,0.5,0
0.42148,5.4729e-05,0,0,0,0,-0.0005691,0.00024214,0.00010946,1.6799e-11,0.39421,-42.29,-47.394,2.5012e-08,2,1014,1014,1,50.7,1740.7,0.5,0
0.42145,5.4729e-05,0,0,0,0,-0.0005723,0.0002421,0.00010946,1.7504e-11,0.39174,-42.97,-48.042,4.1329e-08,2,1016,1016,1,50.76,1740.8,0.5,0
0.42141,5.4729e-05,0,0,0,0,-0.0005739,0.00024207,0.00010946,1.7877e-11,0.39049,-43.31,-48.366,4.5131e-08,2,1017,1017,1,50.82,1740.8,0.5,0
0.42138,5.4729e-05,0,0,0,0,-0.00057549,0.00024205,0.00010946,1.819e-11,0.38923,-43.65,-48.69,4.3346e-08,2,1018,1018,1,50.88,1740.9,0.5,0
0.42134,5.4729e-05,0,0,0,0,-0.00057709,0.00024203,0.00010946,1.8439e-11,0.38796,-43.99,-49.014,2.9206e-08,2,1019,1019,1,50.94,1740.9,0.5,0
0.42131,5.4729e-05,0,0,0,0,-0.00057869,0.000242,0.00010946,1.8631e-11,0.38668,-44.33,-49.338,1.1966e-08,2,1020,1020,1,51,1741,0.5,0
0.42127,5.473e-05,0,0,0,0,-0.00058188,0.00024196,0.00010946,1.8937e-11,0.38409,-45.009,-49.987,-2.3647e-08,2,1022,1022,1,51.06,1741.1,0.5,0
0.42124,5.473e-05,0,0,0,0,-0.00058348,0.00024193,0.00010946,1.8957e-11,0.38279,-45.349,-50.311,-5.2454e-08,2,1023,1023,1,51.12,1741.1,0.5,0
0.4212,5.473e-05,0,0,0,0,-0.00058508,0.00024191,0.00010946,1.9018e-11,0.38147,-45.688,-50.636,-8.2838e-08,2,1024,1024,1,51.18,1741.2,0.5,0
0.42117,5.473e-05,0,0,0,0,-0.00058667,0.00024189,0.00010946,1.9069e-11,0.38014,-46.028,-50.96,-1.106e-07,2,1025,1025,1,51.24,1741.2,0.5,0
0.42113,5.473e-05,0,0,0,0,-0.00058827,0.00024186,0.00010946,1.9046e-11,0.3788,-46.367,-51.285,-1.4384e-07,2,1026,1026,1,51.3,1741.3,0.5,0
0.4211,5.473e-05,0,0,0,0,-0.00059146,0.00024181,0.00010946,1.8439e-11,0.3761,-47.046,-51.934,-1.9469e-07,2,1028,1028,1,51.36,1741.4,0.5,0
0.42106,5.473e-05,0,0,0,0,-0.00059306,0.00024179,0.00010946,1.8267e-11,0.37473,-47.386,-52.258,-2.3136e-07,2,1029,1029,1,51.42,1741.4,0.5,0
0.42103,5.473e-05,0,0,0,0,-0.00059466,0.00024177,0.00010946,1.8061e-11,0.37336,-47.725,-52.583,-2.5406e-07,2,1030,1030,1,51.48,1741.5,0.5,0
0.42099,5.473e-05,0,0,0,0,-0.00059625,0.00024174,0.00010946,1.7779e-11,0.37197,-48.064,-52.908,-2.7469e-07,2,1031,1031,1,51.54,1741.5,0.5,0
0.42096,5.4731e-05,0,0,0,0,-0.00059785,0.00024172,0.00010946,1.7509e-11,0.37057,-48.404,-53.232,-2.8686e-07,2,1032,1032,1,51.6,1741.6,0.5,0
0.42092,5.4731e-05,0,0,0,0,-0.00060105,0.00024167,0.00010946,1.7023e-11,0.36775,-49.082,-53.882,-2.7717e-07,2,1034,1034,1,51.66,1741.7,0.5,0
0.42088,5.4731e-05,0,0,0,0,-0.00060264,0.00024165,0.00010946,1.6801e-11,0.36633,-49.421,-54.207,-2.6425e-07,2,1035,1035,1,51.72,1741.7,0.5,0
0.42085,5.4731e-05,0,0,0,0,-0.00060424,0.00024162,0.00010946,1.6599e-11,0.3649,-49.76,-54.532,-2.4372e-07,2,1036,1036,1,51.78,1741.8,0.5,0
0.42081,5.4731e-05,0,0,0,0,-0.00060584,0.0002416,0.00010946,1.6376e-11,0.36345,-50.099,-54.857,-2.2383e-07,2,1037,1037,1,51.84,1741.8,0.5,0
0.42077,5.4731e-05,0,0,0,0,-0.00060743,0.00024157,0.00010946,1.6158e-11,0.362,-50.438,-55.182,-2.0475e-07,2,1038,1038,1,51.9,1741.9,0.5,0
0.42074,5.4731e-05,0,0,0,0,-0.00061063,0.00024152,0.00010946,1.5624e-11,0.35906,-51.116,-55.832,-1.7431e-07,2,1040,1040,1,51.96,1742,0.5,0
0.4207,5.4731e-05,0,0,0,0,-0.00061222,0.0002415,0.00010946,1.5348e-11,0.35758,-51.455,-56.158,-1.5983e-07,2,1041,1041,1,52.02,1742,0.5,0
0.42066,5.4731e-05,0,0,0,0,-0.00061382,0.00024147,0.00010946,1.4994e-11,0.35609,-51.794,-56.483,-1.59e-07,2,1042,1042,1,52.08,1742.1,0.5,0
0.42063,5.4731e-05,0,0,0,0,-0.00061542,0.00024145,0.00010946,1.4589e-11,0.35459,-52.133,-56.808,-1.7142e-07,2,1043,1043,1,52.14,1742.1,0.5,0
0.42059,5.4732e-05,0,0,0,0,-0.00061701,0.00024143,0.00010946,1.4093e-11,0.35308,-52.471,-57.134,-1.8155e-07,2,1044,1044,1,52.2,1742.2,0.5,0
0.42055,5.4732e-05,0,0,0,0,-0.00062021,0.00024138,0.00010946,1.2894e-11,0.35002,-53.149,-57.784,-1.979e-07,2,1046,1046,1,52.26,1742.3,0.5,0
0.42052,5.4732e-05,0,0,0,0,-0.00062181,0.00024135,0.00010946,1.2492e-11,0.34848,-53.487,-58.11,-2.1346e-07,2,1047,1047,1,52.32,1742.3,0.5,0
0.42048,5.4732e-05,0,0,0,0,-0.0006234,0.00024133,0.00010946,1.2092e-11,0.34693,-53.826,-58.435,-2.2989e-07,2,1048,1048,1,52.38,1742.4,0.5,0
0.42044,5.4732e-05,0,0,0,0,-0.000625,0.0002413,0.00010946,1.1795e-11,0.34537,-54.164,-58.761,-2.3245e-07,2,1049,1049,1,52.44,1742.4,0.5,0
0.4204,5.4732e-05,0,0,0,0,-0.0006266,0.00024128,0.00010946,1.1711e-11,0.34381,-54.503,-59.086,-2.1794e-07,2,1050,1050,1,52.5,1742.5,0.5,0
0.42037,5.4732e-05,0,0,0,0,-0.00062979,0.00024123,0.00010946,1.1921e-11,0.34064,-55.18,-59.738,-1.7173e-07,2,1052,1052,1,52.56,1742.6,0.5,0
0.42033,5.4732e-05,0,0,0,0,-0.00063139,0.0002412,0.00010946,1.2251e-11,0.33904,-55.518,-60.064,-1.4054e-07,2,1053,1053,1,52.62,1742.6,0.5,0
0.42029,5.4732e-05,0,0,0,0,-0.00063298,0.00024118,0.00010946,1.2606e-11,0.33743,-55.857,-60.389,-1.1295e-07,2,1054,1054,1,52.68,1742.7,0.5,0
0.42025,5.4733e-05,0,0,0,0,-0.00063458,0.00024115,0.00010947,1.2985e-11,0.33582,-56.195,-60.715,-9.0617e-08,2,1055,1055,1,52.74,1742.7,0.5,0
0.42021,5.4733e-05,0,0,0,0,-0.00063618,0.00024113,0.00010947,1.3412e-11,0.33419,-56.533,-61.041,-6.901e-08,2,1056,1056,1,52.8,1742.8,0.5,0
0.42018,5.4733e-05,0,0,0,0,-0.00063937,0.00024108,0.00010947,1.4426e-11,0.33091,-57.209,-61.693,-2.6473e-08,2,1058,1058,1,52.86,1742.9,0.5,0
0.42014,5.4733e-05,0,0,0,0,-0.00064097,0.00024105,0.00010947,1.4945e-11,0.32925,-57.547,-62.019,-1.104e-08,2,1059,1059,1,52.92,1742.9,0.5,0
0.4201,5.4733e-05,0,0,0,0,-0.00064256,0.00024103,0.00010947,1.536e-11,0.32759,-57.886,-62.345,-9.6892e-09,2,1060,1060,1,52.98,1743,0.5,0
0.42006,5.4733e-05,0,0,0,0,-0.00064416,0.000241,0.00010947,1.5715e-11,0.32591,-58.224,-62.672,-1.8124e-08,2,1061,1061,1,53.04,1743,0.5,0
0.42002,5.4733e-05,0,0,0,0,-0.00064576,0.00024097,0.00010947,1.6065e-11,0.32423,-58.561,-62.998,-2.6368e-08,2,1062,1062,1,53.1,1743.1,0.5,0
0.41998,5.4733e-05,0,0,0,0,-0.00064895,0.00024092,0.00010947,1.6362e-11,0.32083,-59.237,-63.65,-2.772e-08,2,1064,1064,1,53.16,1743.2,0.5,0
0.41994,5.4733e-05,0,0,0,0,-0.00065055,0.0002409,0.00010947,1.6635e-11,0.31912,-59.575,-63.976,-4.8033e-08,2,1065,1065,1,53.22,1743.2,0.5,0
0.4199,5.4734e-05,0,0,0,0,-0.00065214,0.00024087,0.00010947,1.6964e-11,0.31739,-59.913,-64.303,-6.4997e-08,2,1066,1066,1,53.28,1743.3,0.5,0
0.41987,5.4734e-05,0,0,0,0,-0.00065374,0.00024085,0.00010947,1.7307e-11,0.31566,-60.251,-64.629,-7.7081e-08,2,1067,1067,1,53.34,1743.3,0.5,0
0.41983,5.4734e-05,0,0,0,0,-0.00065534,0.00024082,0.00010947,1.7598e-11,0.31392,-60.589,-64.955,-9.527e-08,2,1068,1068,1,53.4,1743.4,0.5,0
0.41979,5.4734e-05,0,0,0,0,-0.00065853,0.00024077,0.00010947,1.8157e-11,0.31041,-61.264,-65.608,-1.5401e-07,2,1070,1070,1,53.46,1743.5,0.5,0
0.41975,5.4734e-05,0,0,0,0,-0.00066013,0.00024074,0.00010947,1.8323e-11,0.30864,-61.602,-65.935,-2.039e-07,2,1071,1071,1,53.52,1743.5,0.5,0
0.41971,5.4734e-05,0,0,0,0,-0.00066172,0.00024072,0.00010947,1.8407e-11,0.30686,-61.94,-66.261,-2.6113e-07,2,1072,1072,1,53.58,1743.6,0.5,0
0.41967,5.4734e-05,0,0,0,0,-0.00066332,0.00024069,0.00010947,1.8465e-11,0.30507,-62.277,-66.588,-3.2072e-07,2,1073,1073,1,53.64,1743.6,0.5,0
0.41963,5.4734e-05,0,0,0,0,-0.00066492,0.00024067,0.00010947,1.8513e-11,0.30327,-62.615,-66.914,-3.7772e-07,2,1074,1074,1,53.7,1743.7,0.5,0
0.41959,5.4734e-05,0,0,0,0,-0.00066811,0.00024061,0.00010947,1.8578e-11,0.29964,-63.29,-67.568,-4.8995e-07,2,1076,1076,1,53.76,1743.8,0.5,0
0.41955,5.4734e-05,0,0,0,0,-0.00066971,0.00024059,0.00010947,1.8484e-11,0.29781,-63.627,-67.895,-5.4029e-07,2,1077,1077,1,53.82,1743.8,0.5,0
0.41951,5.4735e-05,0,0,0,0,-0.0006713,0.00024056,0.00010947,1.831e-11,0.29597,-63.964,-68.222,-5.7647e-07,2,1078,1078,1,53.88,1743.9,0.5,0
0.41947,5.4735e-05,0,0,0,0,-0.0006729,0.00024054,0.00010947,1.8056e-11,0.29413,-64.302,-68.548,-6.0526e-07,2,1079,1079,1,53.94,1743.9,0.5,0
0.41943,5.4735e-05,0,0,0,0,-0.00067449,0.00024051,0.00010947,1.7839e-11,0.29227,-64.639,-68.875,-6.2244e-07,2,1080,1080,1,54,1744,0.5,0
0.41939,5.4735e-05,0,0,0,0,-0.00067769,0.00024046,0.00010947,1.7543e-11,0.28853,-65.313,-69.529,-6.3274e-07,2,1082,1082,1,54.06,1744.1,0.5,0
0.41935,5.4735e-05,0,0,0,0,-0.00067928,0.00024043,0.00010947,1.7315e-11,0.28664,-65.651,-69.856,-6.1519e-07,2,1083,1083,1,54.12,1744.1,0.5,0
0.4193,5.4735e-05,0,0,0,0,-0.00068088,0.0002404,0.00010947,1.7097e-11,0.28475,-65.988,-70.183,-6.0518e-07,2,1084,1084,1,54.18,1744.2,0.5,0
0.41926,5.4735e-05,0,0,0,0,-0.00068248,0.00024038,0.00010947,1.701e-11,0.28284,-66.325,-70.51,-5.9428e-07,2,1085,1085,1,54.24,1744.2,0.5,0
0.41922,5.4735e-05,0,0,0,0,-0.00068407,0.00024035,0.00010947,1.6862e-11,0.28093,-66.662,-70.837,-5.83e-07,2,1086,1086,1,54.3,1744.3,0.5,0
0.41918,5.4735e-05,0,0,0,0,-0.00068727,0.0002403,0.00010947,1.6514e-11,0.27707,-67.336,-71.491,-5.5875e-07,2,1088,1088,1,54.36,1744.4,0.5,0
0.41914,5.4736e-05,0,0,0,0,-0.00068886,0.00024027,0.00010947,1.6376e-11,0.27513,-67.673,-71.819,-5.3838e-07,2,1089,1089,1,54.42,1744.4,0.5,0
0.4191,5.4736e-05,0,0,0,0,-0.00069046,0.00024025,0.00010947,1.6202e-11,0.27318,-68.01,-72.146,-5.2045e-07,2,1090,1090,1,54.48,1744.5,0.5,0
0.41906,5.4736e-05,0,0,0,0,-0.00069205,0.00024022,0.00010947,1.6025e-11,0.27121,-68.347,-72.473,-5.1291e-07,2,1091,1091,1,54.54,1744.5,0.5,0
0.41902,5.4736e-05,0,0,0,0,-0.00069365,0.00024019,0.00010947,1.5884e-11,0.26924,-68.684,-72.8,-5.1068e-07,2,1092,1092,1,54.6,1744.6,0.5,0
0.41897,5.4736e-05,0,0,0,0,-0.00069684,0.00024014,0.00010947,1.5498e-11,0.26527,-69.358,-73.455,-5.1503e-07,2,1094,1094,1,54.66,1744.7,0.5,0
0.41893,5.4736e-05,0,0,0,0,-0.00069844,0.00024011,0.00010947,1.5183e-11,0.26327,-69.695,-73.782,-5.3582e-07,2,1095,1095,1,54.72,1744.7,0.5,0
0.41889,5.4736e-05,0,0,0,0,-0.00070003,0.00024008,0.00010947,1.4776e-11,0.26126,-70.031,-74.11,-5.681e-07,2,1096,1096,1,54.78,1744.8,0.5,0
0.41885,5.4736e-05,0,0,0,0,-0.00070163,0.00024006,0.00010947,1.4367e-11,0.25924,-70.368,-74.437,-5.9565e-07,2,1097,1097,1,54.84,1744.8,0.5,0
0.41881,5.4736e-05,0,0,0,0,-0.00070323,0.00024003,0.00010947,1.4017e-11,0.25721,-70.705,-74.765,-6.1586e-07,2,1098,1098,1,54.9,1744.9,0.5,0
0.41876,5.4737e-05,0,0,0,0,-0.00070642,0.00023998,0.00010947,1.3456e-11,0.25313,-71.378,-75.42,-6.6308e-07,2,1100,1100,1,54.96,1745,0.5,0
0.41872,5.4737e-05,0,0,0,0,-0.00070801,0.00023995,0.00010947,1.3386e-11,0.25107,-71.714,-75.748,-6.8142e-07,2,1101,1101,1,55.02,1745,0.5,0
0.41868,5.4737e-05,0,0,0,0,-0.00070961,0.00023992,0.00010947,1.3458e-11,0.249,-72.051,-76.075,-6.8918e-07,2,1102,1102,1,55.08,1745.1,0.5,0
0.41864,5.4737e-05,0,0,0,0,-0.00071121,0.00023989,0.00010947,1.3597e-11,0.24693,-72.387,-76.403,-6.9148e-07,2,1103,1103,1,55.14,1745.1,0.5,0
0.41859,5.4737e-05,0,0,0,0,-0.0007128,0.00023987,0.00010947,1.3615e-11,0.24484,-72.724,-76.731,-6.7731e-07,2,1104,1104,1,55.2,1745.2,0.5,0
0.41855,5.4737e-05,0,0,0,0,-0.00071599,0.00023981,0.00010947,1.385e-11,0.24064,-73.397,-77.386,-6.7568e-07,2,1106,1106,1,55.26,1745.3,0.5,0
0.41851,5.4737e-05,0,0,0,0,-0.00071759,0.00023979,0.00010947,1.3894e-11,0.23853,-73.733,-77.714,-6.8241e-07,2,1107,1107,1,55.32,1745.3,0.5,0
0.41846,5.4737e-05,0,0,0,0,-0.00071918,0.00023976,0.00010947,1.3828e-11,0.2364,-74.07,-78.042,-6.882e-07,2,1108,1108,1,55.38,1745.4,0.5,0
0.41842,5.4737e-05,0,0,0,0,-0.00072078,0.00023973,0.00010947,1.3646e-11,0.23427,-74.406,-78.37,-6.874e-07,2,1109,1109,1,55.44,1745.4,0.5,0
0.41838,5.4738e-05,0,0,0,0,-0.00072238,0.0002397,0.00010947,1.3237e-11,0.23213,-74.742,-78.698,-6.9721e-07,2,1110,1110,1,55.5,1745.5,0.5,0
0.41833,5.4738e-05,0,0,0,0,-0.00072557,0.00023965,0.00010948,1.1809e-11,0.22781,-75.415,-79.353,-7.2301e-07,2,1112,1112,1,55.56,1745.6,0.5,0
0.41829,5.4738e-05,0,0,0,0,-0.00072716,0.00023962,0.00010948,1.0857e-11,0.22564,-75.751,-79.681,-7.2953e-07,2,1113,1113,1,55.62,1745.6,0.5,0
0.41825,5.4738e-05,0,0,0,0,-0.00072876,0.00023959,0.00010948,9.6343e-12,0.22346,-76.087,-80.009,-7.4247e-07,2,1114,1114,1,55.68,1745.7,0.5,0
0.4182,5.4738e-05,0,0,0,0,-0.00073035,0.00023956,0.00010948,8.1758e-12,0.22127,-76.423,-80.337,-7.5412e-07,2,1115,1115,1,55.74,1745.7,0.5,0
0.41816,5.4738e-05,0,0,0,0,-0.00073195,0.00023954,0.00010948,6.5057e-12,0.21907,-76.759,-80.666,-7.6136e-07,2,1116,1116,1,55.8,1745.8,0.5,0
0.41812,5.4738e-05,0,0,0,0,-0.00073514,0.00023948,0.00010948,2.5731e-12,0.21464,-77.431,-81.322,-7.5755e-07,2,1118,1118,1,55.86,1745.9,0.5,0
0.41807,5.4738e-05,0,0,0,0,-0.00073674,0.00023945,0.00010948,2.8186e-13,0.21241,-77.767,-81.65,-7.5535e-07,2,1119,1119,1,55.92,1745.9,0.5,0
0.41803,5.4738e-05,0,0,0,0,-0.00073833,0.00023943,0.00010948,-2.1765e-12,0.21018,-78.103,-81.978,-7.4876e-07,2,1120,1120,1,55.98,1746,0.5,0
0.41798,5.4739e-05,0,0,0,0,-0.00073993,0.0002394,0.00010948,-4.8625e-12,0.20793,-78.439,-82.306,-7.3497e-07,2,1121,1121,1,56.04,1746,0.5,0
0.41794,5.4739e-05,0,0,0,0,-0.00074152,0.00023937,0.00010948,-7.7561e-12,0.20567,-78.775,-82.635,-7.1694e-07,2,1122,1122,1,56.1,1746.1,0.5,0
0.41789,5.4739e-05,0,0,0,0,-0.00074471,0.00023931,0.00010948,-1.4248e-11,0.20113,-79.447,-83.291,-6.8287e-07,2,1124,1124,1,56.16,1746.2,0.5,0
0.41785,5.4739e-05,0,0,0,0,-0.00074631,0.00023928,0.00010948,-1.7914e-11,0.19884,-79.782,-83.62,-6.7193e-07,2,1125,1125,1,56.22,1746.2,0.5,0
0.4178,5.4739e-05,0,0,0,0,-0.0007479,0.00023926,0.00010948,-2.1891e-11,0.19655,-80.118,-83.948,-6.508e-07,2,1126,1126,1,56.28,1746.3,0.5,0
0.41776,5.4739e-05,0,0,0,0,-0.0007495,0.00023923,0.00010948,-2.6214e-11,0.19424,-80.454,-84.277,-6.1532e-07,2,1127,1127,1,56.34,1746.3,0.5,0
0.41771,5.4739e-05,0,0,0,0,-0.00075109,0.0002392,0.00010948,-3.0731e-11,0.19193,-80.79,-84.605,-5.852e-07,2,1128,1128,1,56.4,1746.4,0.5,0
0.41767,5.4739e-05,0,0,0,0,-0.00075429,0.00023914,0.00010948,-4.0347e-11,0.18727,-81.461,-85.262,-4.8402e-07,2,1130,1130,1,56.46,1746.5,0.5,0
0.41762,5.4739e-05,0,0,0,0,-0.00075588,0.00023911,0.00010948,-4.5513e-11,0.18493,-81.797,-85.59,-4.0021e-07,2,1131,1131,1,56.52,1746.5,0.5,0
0.41758,5.4739e-05,0,0,0,0,-0.00075748,0.00023909,0.00010948,-5.0753e-11,0.18258,-82.132,-85.919,-2.673e-07,2,1132,1132,1,56.58,1746.6,0.5,0
0.41753,5.474e-05,0,0,0,0,-0.00075907,0.00023906,0.00010948,-5.6111e-11,0.18022,-82.468,-86.247,-9.0095e-08,2,1133,1133,1,56.64,1746.6,0.5,0
0.41749,5.474e-05,0,0,0,0,-0.00076067,0.00023903,0.00010948,-6.1621e-11,0.17785,-82.803,-86.576,1.2085e-07,2,1134,1134,1,56.7,1746.7,0.5,0
0.41744,5.474e-05,0,0,0,0,-0.00076386,0.00023897,0.00010948,-7.2797e-11,0.17308,-83.474,-87.233,6.9055e-07,2,1136,1136,1,56.76,1746.8,0.5,0
0.4174,5.474e-05,0,0,0,0,-0.00076545,0.00023894,0.00010948,-7.8497e-11,0.17068,-83.81,-87.562,1.0479e-06,2,1137,1137,1,56.82,1746.8,0.5,0
0.41735,5.474e-05,0,0,0,0,-0.00076705,0.00023891,0.00010948,-8.4308e-11,0.16827,-84.145,-87.89,1.4468e-06,2,1138,1138,1,56.88,1746.9,0.5,0
0.4173,5.474e-05,0,0,0,0,-0.00076864,0.00023889,0.00010948,-9.0259e-11,0.16585,-84.481,-88.219,1.8939e-06,2,1139,1139,1,56.94,1746.9,0.5,0
0.41726,5.474e-05,0,0,0,0,-0.00077024,0.00023886,0.00010948,-9.6366e-11,0.16343,-84.816,-88.548,2.3857e-06,2,1140,1140,1,57,1747,0.5,0
0.41721,5.474e-05,0,0,0,0,-0.00077343,0.0002388,0.00010948,-1.0896e-10,0.15854,-85.487,-89.206,3.5147e-06,2,1142,1142,1,57.06,1747.1,0.5,0
0.41716,5.474e-05,0,0,0,0,-0.00077502,0.00023877,0.00010948,-1.155e-10,0.15609,-85.822,-89.534,4.1643e-06,2,1143,1143,1,57.12,1747.1,0.5,0
0.41712,5.4741e-05,0,0,0,0,-0.00077662,0.00023874,0.00010948,-1.222e-10,0.15362,-86.157,-89.863,4.8756e-06,2,1144,1144,1,57.18,1747.2,0.5,0
0.41707,5.4741e-05,0,0,0,0,-0.00077821,0.00023871,0.00010948,-1.2904e-10,0.15115,-86.492,-90.192,5.6616e-06,2,1145,1145,1,57.24,1747.2,0.5,0
0.41702,5.4741e-05,0,0,0,0,-0.0007798,0.00023868,0.00010948,-1.3596e-10,0.14866,-86.827,-90.521,6.5304e-06,2,1146,1146,1,57.3,1747.3,0.5,0
0.41698,5.4741e-05,0,0,0,0,-0.00078299,0.00023862,0.00010948,-1.497e-10,0.14367,-87.498,-91.179,8.5921e-06,2,1148,1148,1,57.36,1747.4,0.5,0
0.41693,5.4741e-05,0,0,0,0,-0.00078459,0.00023859,0.00010948,-1.5649e-10,0.14115,-87.833,-91.508,9.7936e-06,2,1149,1149,1,57.42,1747.4,0.5,0
0.41688,5.4741e-05,0,0,0,0,-0.00078618,0.00023857,0.00010948,-1.6307e-10,0.13863,-88.168,-91.837,1.1145e-05,2,1150,1150,1,57.48,1747.5,0.5,0
0.41684,5.4741e-05,0,0,0,0,-0.00078778,0.00023854,0.00010948,-1.6949e-10,0.1361,-88.503,-92.166,1.2665e-05,2,1151,1151,1,57.54,1747.5,0.5,0
0.41679,5.4741e-05,0,0,0,0,-0.00078937,0.00023851,0.00010948,-1.7552e-10,0.13356,-88.838,-92.495,1.4347e-05,2,1152,1152,1,57.6,1747.6,0.5,0
0.41674,5.4741e-05,0,0,0,0,-0.00079256,0.00023845,0.00010948,-1.8606e-10,0.12845,-89.508,-93.153,1.8311e-05,2,1154,1154,1,57.66,1747.7,0.5,0
0.41669,5.4742e-05,0,0,0,0,-0.00079416,0.00023842,0.00010948,-1.9045e-10,0.12588,-89.843,-93.482,2.0654e-05,2,1155,1155,1,57.72,1747.7,0.5,0
0.41665,5.4742e-05,0,0,0,0,-0.00079575,0.00023839,0.00010948,-1.9413e-10,0.1233,-90.178,-93.811,2.3278e-05,2,1156,1156,1,57.78,1747.8,0.5,0
0.4166,5.4742e-05,0,0,0,0,-0.00079734,0.00023836,0.00010948,-1.9701e-10,0.12071,-90.513,-94.141,2.6207e-05,2,1157,1157,1,57.84,1747.8,0.5,0
0.41655,5.4742e-05,0,0,0,0,-0.00079894,0.00023833,0.00010948,-1.9892e-10,0.11812,-90.847,-94.47,2.9475e-05,2,1158,1158,1,57.9,1747.9,0.5,0
0.4165,5.4742e-05,0,0,0,0,-0.00080213,0.00023827,0.00010948,-1.9926e-10,0.11289,-91.517,-95.128,3.7171e-05,2,1160,1160,1,57.96,1748,0.5,0
0.41645,5.4742e-05,0,0,0,0,-0.00080372,0.00023824,0.00010948,-1.9727e-10,0.11027,-91.852,-95.457,4.1694e-05,2,1161,1161,1,58.02,1748,0.5,0
0.41641,5.4742e-05,0,0,0,0,-0.00080532,0.00023821,0.00010948,-1.9362e-10,0.10763,-92.187,-95.787,4.6726e-05,2,1162,1162,1,58.08,1748.1,0.5,0
0.41636,5.4742e-05,0,0,0,0,-0.00080691,0.00023818,0.00010948,-1.88e-10,0.10499,-92.521,-96.116,5.2324e-05,2,1163,1163,1,58.14,1748.1,0.5,0
0.41631,5.4742e-05,0,0,0,0,-0.0008085,0.00023815,0.00010948,-1.8002e-10,0.10233,-92.856,-96.445,5.8558e-05,2,1164,1164,1,58.2,1748.2,0.5,0
0.41626,5.4743e-05,0,0,0,0,-0.00081169,0.00023809,0.00010949,-1.5552e-10,0.096997,-93.525,-97.104,7.3199e-05,2,1166,1166,1,58.26,1748.3,0.5,0
0.41621,5.4743e-05,0,0,0,0,-0.00081329,0.00023806,0.00010949,-1.3815e-10,0.094314,-93.86,-97.434,8.176e-05,2,1167,1167,1,58.32,1748.3,0.5,0
0.41616,5.4743e-05,0,0,0,0,-0.00081488,0.00023803,0.00010949,-1.1663e-10,0.091623,-94.194,-97.763,9.128e-05,2,1168,1168,1,58.38,1748.4,0.5,0
0.41611,5.4743e-05,0,0,0,0,-0.00081648,0.000238,0.00010949,-9.0364e-11,0.088922,-94.529,-98.092,0.00010185,2,1169,1169,1,58.44,1748.4,0.5,0
0.41606,5.4743e-05,0,0,0,0,-0.00081807,0.00023797,0.00010949,-5.872e-11,0.086211,-94.863,-98.422,0.00011358,2,1170,1170,1,58.5,1748.5,0.5,0
0.41602,5.4743e-05,0,0,0,0,-0.00082126,0.00023791,0.00010949,2.374e-11,0.080762,-95.532,-99.081,0.00014101,2,1172,1172,1,58.56,1748.6,0.5,0
0.41597,5.4743e-05,0,0,0,0,-0.00082285,0.00023788,0.00010949,7.6205e-11,0.078023,-95.867,-99.411,0.00015697,2,1173,1173,1,58.62,1748.6,0.5,0
0.41592,5.4743e-05,0,0,0,0,-0.00082445,0.00023785,0.00010949,1.3754e-10,0.075275,-96.201,-99.74,0.00017465,2,1174,1174,1,58.68,1748.7,0.5,0
0.41587,5.4743e-05,0,0,0,0,-0.00082604,0.00023782,0.00010949,2.0881e-10,0.072517,-96.535,-100.07,0.00019423,2,1175,1175,1,58.74,1748.7,0.5,0
0.41582,5.4744e-05,0,0,0,0,-0.00082763,0.00023779,0.00010949,2.9136e-10,0.06975,-96.87,-100.4,0.00021588,2,1176,1176,1,58.8,1748.8,0.5,0
0.41577,5.4744e-05,0,0,0,0,-0.00083082,0.00023773,0.00010949,4.9607e-10,0.064188,-97.538,-101.06,0.00026634,2,1178,1178,1,58.86,1748.9,0.5,0
0.41572,5.4744e-05,0,0,0,0,-0.00083241,0.0002377,0.00010949,6.2175e-10,0.061393,-97.873,-101.39,0.00029561,2,1179,1179,1,58.92,1748.9,0.5,0
0.41567,5.4744e-05,0,0,0,0,-0.00083401,0.00023767,0.00010949,7.655e-10,0.058589,-98.207,-101.72,0.00032797,2,1180,1180,1,58.98,1749,0.5,0
0.41562,5.4744e-05,0,0,0,0,-0.0008356,0.00023764,0.00010949,9.2947e-10,0.055775,-98.541,-102.05,0.00036372,2,1181,1181,1,59.04,1749,0.5,0
0.41557,5.4744e-05,0,0,0,0,-0.00083719,0.0002376,0.00010949,1.1162e-09,0.052951,-98.875,-102.38,0.00040319,2,1182,1182,1,59.1,1749.1,0.5,0
0.41552,5.4744e-05,0,0,0,0,-0.00084038,0.00023754,0.00010949,1.5684e-09,0.047277,-99.544,-103.04,0.00049485,2,1184,1184,1,59.16,1749.2,0.5,0
0.41547,5.4744e-05,0,0,0,0,-0.00084198,0.00023751,0.00010949,1.7822e-09,0.044425,-99.878,-103.37,0.00054098,2,1185,1185,1,59.22,1749.2,0.5,0
0.41542,5.4744e-05,0,0,0,0,-0.00084337,0.00023748,0.00010949,1.7757e-09,0.041565,-100.17,-103.65,0.00056186,2,1186,1186,1,59.28,1749.3,0.5,0
0.41537,5.4744e-05,0,0,0,0,-0.00084337,0.00023745,0.00010949,2.0225e-09,0.0387,-100.19,-103.65,0.00061166,2,1187,1187,1,59.34,1749.3,0.5,0
0.41531,5.4744e-05,0,0,0,0,-0.00084336,0.00023742,0.00010949,2.7412e-09,0.035835,-100.2,-103.64,0.00071803,2,1188,1188,1,59.4,1749.4,0.5,0
0.41526,5.4744e-05,0,0,0,0,-0.00084334,0.00023736,0.00010949,4.4312e-09,0.030105,-100.23,-103.62,0.00095998,2,1190,1190,1,59.46,1749.5,0.5,0
0.41521,5.4744e-05,0,0,0,0,-0.00084334,0.00023733,0.00010949,5.4274e-09,0.027239,-100.25,-103.61,0.0010979,2,1191,1191,1,59.52,1749.5,0.5,0
0.41516,5.4744e-05,0,0,0,0,-0.00084333,0.0002373,0.00010949,6.544e-09,0.024373,-100.26,-103.6,0.001249,2,1192,1192,1,59.58,1749.6,0.5,0
0.41511,5.4744e-05,0,0,0,0,-0.00084332,0.00023727,0.00010949,7.7978e-09,0.021507,-100.28,-103.6,0.0014147,2,1193,1193,1,59.64,1749.6,0.5,0
0.41506,5.4744e-05,0,0,0,0,-0.00084332,0.00023723,0.00010949,9.2069e-09,0.018641,-100.3,-103.59,0.0015966,2,1194,1194,1,59.7,1749.7,0.5,0
0.41501,5.4744e-05,0,0,0,0,-0.0008433,0.00023717,0.00010949,1.2573e-08,0.012906,-100.33,-103.57,0.002016,2,1196,1196,1,59.76,1749.8,0.5,0
0.41496,5.4744e-05,0,0,0,0,-0.0008433,0.00023714,0.00010949,1.4576e-08,0.010039,-100.35,-103.56,0.0022572,2,1197,1197,1,59.82,1749.8,0.5,0
0.41491,5.4744e-05,0,0,0,0,-0.00084329,0.00023711,0.00010949,1.6822e-08,0.0071711,-100.37,-103.54,0.0025215,2,1198,1198,1,59.88,1749.9,0.5,0
0.41486,5.4744e-05,0,0,0,0,-0.00084328,0.00023708,0.00010949,1.8303e-08,0.0043029,-100.38,-103.53,0.0026837,2,1199,1199,1,59.94,1749.9,0.5,0
0.41481,5.4729e-05,0,0,0,0,-0.00084326,0.00023705,0.00010947,-1.3591e-07,0.0014344,-100.4,-103.52,-0.025724,2,1200,1200,1,60,1750,0.5,0
