Points:0,Exx,Eyy,Ezz,Exy,Eyz,Exz,Stress-xx,Stress-yy,Stress-zz,Stress-xy,Stress-yz,Stress-xz
1690,-0.00255952,0.00208808,0.00066347,-2.661497E-06,4.222731E-05,0.000668025,-0.57778,42.52,41.579,3.0982,-0.0035133,0.054161
1690.1,-0.00255952,0.00208808,0.00066347,-2.661497E-06,4.222731E-05,0.000668025,-0.57778,42.52,41.579,3.0982,-0.0035133,0.054161
1690.1,-0.00255952,0.00208808,0.00066347,-2.661497E-06,4.222731E-05,0.000668025,-0.57778,42.52,41.579,3.0982,-0.0035133,0.054161
1690.2,-0.00255952,0.00208808,0.00066347,-2.661497E-06,4.222731E-05,0.000668025,-0.57778,42.52,41.579,3.0982,-0.0035133,0.054161
1690.2,-0.00255952,0.00208808,0.00066347,-2.661497E-06,4.222731E-05,0.000668025,-0.57778,42.52,41.579,3.0982,-0.0035133,0.054161
1690.3,-0.00255952,0.00208808,0.00066347,-2.661497E-06,4.222731E-05,0.000668025,-0.57778,42.52,41.579,3.0982,-0.0035133,0.054161
1690.4,-0.00255952,0.00208808,0.00066347,-2.661497E-06,4.222731E-05,0.000668025,-0.57778,42.52,41.579,3.0982,-0.0035133,0.054161
1690.4,-0.00255952,0.00208808,0.00066347,-2.661497E-06,4.222731E-05,0.000668025,-0.57778,42.52,41.579,3.0982,-0.0035133,0.054161
1690.5,-0.00255952,0.00208808,0.00066347,-2.661497E-06,4.222731E-05,0.000668025,-0.57778,42.52,41.579,3.0982,-0.0035133,0.054161
1690.5,-0.00255952,0.00208808,0.00066347,-2.661497E-06,4.222731E-05,0.000668025,-0.57778,42.52,41.579,3.0982,-0.0035133,0.054161
1690.6,-0.00255952,0.00208808,0.00066347,-2.661497E-06,4.222731E-05,0.000668025,-0.57778,42.52,41.579,3.0982,-0.0035133,0.054161
1690.7,-0.00255952,0.00208808,0.00066347,-2.661497E-06,4.222731E-05,0.000668025,-0.57778,42.52,41.579,3.0982,-0.0035133,0.054161
1690.7,-0.00255952,0.00208808,0.00066347,-2.661497E-06,4.222731E-05,0.000668025,-0.57778,42.52,41.579,3.0982,-0.0035133,0.054161
1690.8,-0.00255952,0.00208808,0.00066347,-2.661497E-06,4.222731E-05,0.000668025,-0.57778,42.52,41.579,3.0982,-0.0035133,0.054161
1690.8,-0.00255952,0.00208808,0.00066347,-2.661497E-06,4.222731E-05,0.000668025,-0.57778,42.52,41.579,3.0982,-0.0035133,0.054161
1690.9,-0.00255952,0.00208808,0.00066347,-2.661497E-06,4.222731E-05,0.000668025,-0.57778,42.52,41.579,3.0982,-0.0035133,0.054161
1691,-0.00255952,0.00208808,0.00066347,-2.661497E-06,4.222731E-05,0.000668025,-0.57778,42.52,41.579,3.0982,-0.0035133,0.054161
1691,-0.00255646,0.0020853,0.00066339,-2.30762E-06,3.607615E-05,0.000667268,-0.55151,42.567,41.582,3.0997,-0.0028523,0.043911
1691.1,-0.00255646,0.0020853,0.00066339,-2.30762E-06,3.607615E-05,0.000667268,-0.55151,42.567,41.582,3.0997,-0.0028523,0.043911
1691.1,-0.00255646,0.0020853,0.00066339,-2.30762E-06,3.607615E-05,0.000667268,-0.55151,42.567,41.582,3.0997,-0.0028523,0.043911
1691.2,-0.00255646,0.0020853,0.00066339,-2.30762E-06,3.607615E-05,0.000667268,-0.55151,42.567,41.582,3.0997,-0.0028523,0.043911
1691.3,-0.00255646,0.0020853,0.00066339,-2.30762E-06,3.607615E-05,0.000667268,-0.55151,42.567,41.582,3.0997,-0.0028523,0.043911
1691.3,-0.00255646,0.0020853,0.00066339,-2.30762E-06,3.607615E-05,0.000667268,-0.55151,42.567,41.582,3.0997,-0.0028523,0.043911
1691.4,-0.00255646,0.0020853,0.00066339,-2.30762E-06,3.607615E-05,0.000667268,-0.55151,42.567,41.582,3.0997,-0.0028523,0.043911
1691.4,-0.00255646,0.0020853,0.00066339,-2.30762E-06,3.607615E-05,0.000667268,-0.55151,42.567,41.582,3.0997,-0.0028523,0.043911
1691.5,-0.00255646,0.0020853,0.00066339,-2.30762E-06,3.607615E-05,0.000667268,-0.55151,42.567,41.582,3.0997,-0.0028523,0.043911
1691.6,-0.00255646,0.0020853,0.00066339,-2.30762E-06,3.607615E-05,0.000667268,-0.55151,42.567,41.582,3.0997,-0.0028523,0.043911
1691.6,-0.00255646,0.0020853,0.00066339,-2.30762E-06,3.607615E-05,0.000667268,-0.55151,42.567,41.582,3.0997,-0.0028523,0.043911
1691.7,-0.00255646,0.0020853,0.00066339,-2.30762E-06,3.607615E-05,0.000667268,-0.55151,42.567,41.582,3.0997,-0.0028523,0.043911
1691.7,-0.00255646,0.0020853,0.00066339,-2.30762E-06,3.607615E-05,0.000667268,-0.55151,42.567,41.582,3.0997,-0.0028523,0.043911
1691.8,-0.00255646,0.0020853,0.00066339,-2.30762E-06,3.607615E-05,0.000667268,-0.55151,42.567,41.582,3.0997,-0.0028523,0.043911
1691.9,-0.00255646,0.0020853,0.00066339,-2.30762E-06,3.607615E-05,0.000667268,-0.55151,42.567,41.582,3.0997,-0.0028523,0.043911
1691.9,-0.00255646,0.0020853,0.00066339,-2.30762E-06,3.607615E-05,0.000667268,-0.55151,42.567,41.582,3.0997,-0.0028523,0.043911
1692,-0.00255646,0.0020853,0.00066339,-2.30762E-06,3.607615E-05,0.000667268,-0.55151,42.567,41.582,3.0997,-0.0028523,0.043911
1692,-0.00255349,0.00208257,0.0006633,-2.071074E-06,3.199859E-05,0.000666478,-0.52526,42.622,41.578,3.1017,-0.0023674,0.036446
1692.1,-0.00255349,0.00208257,0.0006633,-2.071074E-06,3.199859E-05,0.000666478,-0.52526,42.622,41.578,3.1017,-0.0023674,0.036446
1692.2,-0.00255349,0.00208257,0.0006633,-2.071074E-06,3.199859E-05,0.000666478,-0.52526,42.622,41.578,3.1017,-0.0023674,0.036446
1692.2,-0.00255349,0.00208257,0.0006633,-2.071074E-06,3.199859E-05,0.000666478,-0.52526,42.622,41.578,3.1017,-0.0023674,0.036446
1692.3,-0.00255349,0.00208257,0.0006633,-2.071074E-06,3.199859E-05,0.000666478,-0.52526,42.622,41.578,3.1017,-0.0023674,0.036446
1692.3,-0.00255349,0.00208257,0.0006633,-2.071074E-06,3.199859E-05,0.000666478,-0.52526,42.622,41.578,3.1017,-0.0023674,0.036446
1692.4,-0.00255349,0.00208257,0.0006633,-2.071074E-06,3.199859E-05,0.000666478,-0.52526,42.622,41.578,3.1017,-0.0023674,0.036446
1692.5,-0.00255349,0.00208257,0.0006633,-2.071074E-06,3.199859E-05,0.000666478,-0.52526,42.622,41.578,3.1017,-0.0023674,0.036446
1692.5,-0.00255349,0.00208257,0.0006633,-2.071074E-06,3.199859E-05,0.000666478,-0.52526,42.622,41.578,3.1017,-0.0023674,0.036446
1692.6,-0.00255349,0.00208257,0.0006633,-2.071074E-06,3.199859E-05,0.000666478,-0.52526,42.622,41.578,3.1017,-0.0023674,0.036446
1692.6,-0.00255349,0.00208257,0.0006633,-2.071074E-06,3.199859E-05,0.000666478,-0.52526,42.622,41.578,3.1017,-0.0023674,0.036446
1692.7,-0.00255349,0.00208257,0.0006633,-2.071074E-06,3.199859E-05,0.000666478,-0.52526,42.622,41.578,3.1017,-0.0023674,0.036446
1692.8,-0.00255349,0.00208257,0.0006633,-2.071074E-06,3.199859E-05,0.000666478,-0.52526,42.622,41.578,3.1017,-0.0023674,0.036446
1692.8,-0.00255349,0.00208257,0.0006633,-2.071074E-06,3.199859E-05,0.000666478,-0.52526,42.622,41.578,3.1017,-0.0023674,0.036446
1692.9,-0.00255349,0.00208257,0.0006633,-2.071074E-06,3.199859E-05,0.000666478,-0.52526,42.622,41.578,3.1017,-0.0023674,0.036446
1692.9,-0.00255349,0.00208257,0.0006633,-2.071074E-06,3.199859E-05,0.000666478,-0.52526,42.622,41.578,3.1017,-0.0023674,0.036446
1693,-0.00255349,0.00208257,0.0006633,-2.071074E-06,3.199859E-05,0.000666478,-0.52526,42.622,41.578,3.1017,-0.0023674,0.036446
1693.1,-0.00225291,0.00208138,0.00066322,-1.69485E-06,2.602857E-05,0.00062308,-0.12756,101.96,100.03,7.3391,-0.0025693,0.039689
1693.1,-0.00225291,0.00208138,0.00066322,-1.69485E-06,2.602857E-05,0.00062308,-0.12756,101.96,100.03,7.3391,-0.0025693,0.039689
1693.2,-0.00225291,0.00208138,0.00066322,-1.69485E-06,2.602857E-05,0.00062308,-0.12756,101.96,100.03,7.3391,-0.0025693,0.039689
1693.2,-0.00225291,0.00208138,0.00066322,-1.69485E-06,2.602857E-05,0.00062308,-0.12756,101.96,100.03,7.3391,-0.0025693,0.039689
1693.3,-0.00225291,0.00208138,0.00066322,-1.69485E-06,2.602857E-05,0.00062308,-0.12756,101.96,100.03,7.3391,-0.0025693,0.039689
1693.4,-0.00225291,0.00208138,0.00066322,-1.69485E-06,2.602857E-05,0.00062308,-0.12756,101.96,100.03,7.3391,-0.0025693,0.039689
1693.4,-0.00225291,0.00208138,0.00066322,-1.69485E-06,2.602857E-05,0.00062308,-0.12756,101.96,100.03,7.3391,-0.0025693,0.039689
1693.5,-0.00225291,0.00208138,0.00066322,-1.69485E-06,2.602857E-05,0.00062308,-0.12756,101.96,100.03,7.3391,-0.0025693,0.039689
1693.5,-0.00225291,0.00208138,0.00066322,-1.69485E-06,2.602857E-05,0.00062308,-0.12756,101.96,100.03,7.3391,-0.0025693,0.039689
1693.6,-0.00225291,0.00208138,0.00066322,-1.69485E-06,2.602857E-05,0.00062308,-0.12756,101.96,100.03,7.3391,-0.0025693,0.039689
1693.7,-0.00225291,0.00208138,0.00066322,-1.69485E-06,2.602857E-05,0.00062308,-0.12756,101.96,100.03,7.3391,-0.0025693,0.039689
1693.7,-0.00225291,0.00208138,0.00066322,-1.69485E-06,2.602857E-05,0.00062308,-0.12756,101.96,100.03,7.3391,-0.0025693,0.039689
1693.8,-0.00225291,0.00208138,0.00066322,-1.69485E-06,2.602857E-05,0.00062308,-0.12756,101.96,100.03,7.3391,-0.0025693,0.039689
1693.8,-0.00225291,0.00208138,0.00066322,-1.69485E-06,2.602857E-05,0.00062308,-0.12756,101.96,100.03,7.3391,-0.0025693,0.039689
1693.9,-0.00225291,0.00208138,0.00066322,-1.69485E-06,2.602857E-05,0.00062308,-0.12756,101.96,100.03,7.3391,-0.0025693,0.039689
1694,-0.00225291,0.00208138,0.00066322,-1.69485E-06,2.602857E-05,0.00062308,-0.12756,101.96,100.03,7.3391,-0.0025693,0.039689
1694,-0.00224983,0.00207887,0.00066314,-1.187165E-06,1.820231E-05,0.00062228,-0.065434,102.16,99.946,7.3486,-0.0019628,0.030325
1694.1,-0.00224983,0.00207887,0.00066314,-1.187165E-06,1.820231E-05,0.00062228,-0.065434,102.16,99.946,7.3486,-0.0019628,0.030325
1694.1,-0.00224983,0.00207887,0.00066314,-1.187165E-06,1.820231E-05,0.00062228,-0.065434,102.16,99.946,7.3486,-0.0019628,0.030325
1694.2,-0.00224983,0.00207887,0.00066314,-1.187165E-06,1.820231E-05,0.00062228,-0.065434,102.16,99.946,7.3486,-0.0019628,0.030325
1694.3,-0.00224983,0.00207887,0.00066314,-1.187165E-06,1.820231E-05,0.00062228,-0.065434,102.16,99.946,7.3486,-0.0019628,0.030325
1694.3,-0.00224983,0.00207887,0.00066314,-1.187165E-06,1.820231E-05,0.00062228,-0.065434,102.16,99.946,7.3486,-0.0019628,0.030325
1694.4,-0.00224983,0.00207887,0.00066314,-1.187165E-06,1.820231E-05,0.00062228,-0.065434,102.16,99.946,7.3486,-0.0019628,0.030325
1694.4,-0.00224983,0.00207887,0.00066314,-1.187165E-06,1.820231E-05,0.00062228,-0.065434,102.16,99.946,7.3486,-0.0019628,0.030325
1694.5,-0.00224983,0.00207887,0.00066314,-1.187165E-06,1.820231E-05,0.00062228,-0.065434,102.16,99.946,7.3486,-0.0019628,0.030325
1694.6,-0.00224983,0.00207887,0.00066314,-1.187165E-06,1.820231E-05,0.00062228,-0.065434,102.16,99.946,7.3486,-0.0019628,0.030325
1694.6,-0.00224983,0.00207887,0.00066314,-1.187165E-06,1.820231E-05,0.00062228,-0.065434,102.16,99.946,7.3486,-0.0019628,0.030325
1694.7,-0.00224983,0.00207887,0.00066314,-1.187165E-06,1.820231E-05,0.00062228,-0.065434,102.16,99.946,7.3486,-0.0019628,0.030325
1694.7,-0.00224983,0.00207887,0.00066314,-1.187165E-06,1.820231E-05,0.00062228,-0.065434,102.16,99.946,7.3486,-0.0019628,0.030325
1694.8,-0.00224983,0.00207887,0.00066314,-1.187165E-06,1.820231E-05,0.00062228,-0.065434,102.16,99.946,7.3486,-0.0019628,0.030325
1694.9,-0.00224983,0.00207887,0.00066314,-1.187165E-06,1.820231E-05,0.00062228,-0.065434,102.16,99.946,7.3486,-0.0019628,0.030325
1694.9,-0.00224983,0.00207887,0.00066314,-1.187165E-06,1.820231E-05,0.00062228,-0.065434,102.16,99.946,7.3486,-0.0019628,0.030325
1695,-0.00224983,0.00207887,0.00066314,-1.187165E-06,1.820231E-05,0.00062228,-0.065434,102.16,99.946,7.3486,-0.0019628,0.030325
1695,-0.00224674,0.00207626,0.00066305,-7.98074E-07,1.222592E-05,0.00062148,-0.0029419,102.41,99.798,7.3623,-0.0014608,0.022621
1695.1,-0.00224674,0.00207626,0.00066305,-7.98074E-07,1.222592E-05,0.00062148,-0.0029419,102.41,99.798,7.3623,-0.0014608,0.022621
1695.2,-0.00224674,0.00207626,0.00066305,-7.98074E-07,1.222592E-05,0.00062148,-0.0029419,102.41,99.798,7.3623,-0.0014608,0.022621
1695.2,-0.00224674,0.00207626,0.00066305,-7.98074E-07,1.222592E-05,0.00062148,-0.0029419,102.41,99.798,7.3623,-0.0014608,0.022621
1695.3,-0.00224674,0.00207626,0.00066305,-7.98074E-07,1.222592E-05,0.00062148,-0.0029419,102.41,99.798,7.3623,-0.0014608,0.022621
1695.3,-0.00224674,0.00207626,0.00066305,-7.98074E-07,1.222592E-05,0.00062148,-0.0029419,102.41,99.798,7.3623,-0.0014608,0.022621
1695.4,-0.00224674,0.00207626,0.00066305,-7.98074E-07,1.222592E-05,0.00062148,-0.0029419,102.41,99.798,7.3623,-0.0014608,0.022621
1695.5,-0.00224674,0.00207626,0.00066305,-7.98074E-07,1.222592E-05,0.00062148,-0.0029419,102.41,99.798,7.3623,-0.0014608,0.022621
1695.5,-0.00224674,0.00207626,0.00066305,-7.98074E-07,1.222592E-05,0.00062148,-0.0029419,102.41,99.798,7.3623,-0.0014608,0.022621
1695.6,-0.00224674,0.00207626,0.00066305,-7.98074E-07,1.222592E-05,0.00062148,-0.0029419,102.41,99.798,7.3623,-0.0014608,0.022621
1695.6,-0.00224674,0.00207626,0.00066305,-7.98074E-07,1.222592E-05,0.00062148,-0.0029419,102.41,99.798,7.3623,-0.0014608,0.022621
1695.7,-0.00224674,0.00207626,0.00066305,-7.98074E-07,1.222592E-05,0.00062148,-0.0029419,102.41,99.798,7.3623,-0.0014608,0.022621
1695.8,-0.00224674,0.00207626,0.00066305,-7.98074E-07,1.222592E-05,0.00062148,-0.0029419,102.41,99.798,7.3623,-0.0014608,0.022621
1695.8,-0.00224674,0.00207626,0.00066305,-7.98074E-07,1.222592E-05,0.00062148,-0.0029419,102.41,99.798,7.3623,-0.0014608,0.022621
1695.9,-0.00224674,0.00207626,0.00066305,-7.98074E-07,1.222592E-05,0.00062148,-0.0029419,102.41,99.798,7.3623,-0.0014608,0.022621
1695.9,-0.00224674,0.00207626,0.00066305,-7.98074E-07,1.222592E-05,0.00062148,-0.0029419,102.41,99.798,7.3623,-0.0014608,0.022621
1696,-0.00224674,0.00207626,0.00066305,-7.98074E-07,1.222592E-05,0.00062148,-0.0029419,102.41,99.798,7.3623,-0.0014608,0.022621
1696.1,-0.00224372,0.00207368,0.00066297,-0.000000504,7.72522E-06,0.00062069,0.060219,102.76,99.54,7.3828,-0.0010443,0.016256
1696.1,-0.00224372,0.00207368,0.00066297,-0.000000504,7.72522E-06,0.00062069,0.060219,102.76,99.54,7.3828,-0.0010443,0.016256
1696.2,-0.00224372,0.00207368,0.00066297,-0.000000504,7.72522E-06,0.00062069,0.060219,102.76,99.54,7.3828,-0.0010443,0.016256
1696.2,-0.00224372,0.00207368,0.00066297,-0.000000504,7.72522E-06,0.00062069,0.060219,102.76,99.54,7.3828,-0.0010443,0.016256
1696.3,-0.00224372,0.00207368,0.00066297,-0.000000504,7.72522E-06,0.00062069,0.060219,102.76,99.54,7.3828,-0.0010443,0.016256
1696.4,-0.00224372,0.00207368,0.00066297,-0.000000504,7.72522E-06,0.00062069,0.060219,102.76,99.54,7.3828,-0.0010443,0.016256
1696.4,-0.00224372,0.00207368,0.00066297,-0.000000504,7.72522E-06,0.00062069,0.060219,102.76,99.54,7.3828,-0.0010443,0.016256
1696.5,-0.00224372,0.00207368,0.00066297,-0.000000504,7.72522E-06,0.00062069,0.060219,102.76,99.54,7.3828,-0.0010443,0.016256
1696.5,-0.00224372,0.00207368,0.00066297,-0.000000504,7.72522E-06,0.00062069,0.060219,102.76,99.54,7.3828,-0.0010443,0.016256
1696.6,-0.00224372,0.00207368,0.00066297,-0.000000504,7.72522E-06,0.00062069,0.060219,102.76,99.54,7.3828,-0.0010443,0.016256
1696.7,-0.00224372,0.00207368,0.00066297,-0.000000504,7.72522E-06,0.00062069,0.060219,102.76,99.54,7.3828,-0.0010443,0.016256
1696.7,-0.00224372,0.00207368,0.00066297,-0.000000504,7.72522E-06,0.00062069,0.060219,102.76,99.54,7.3828,-0.0010443,0.016256
1696.8,-0.00224372,0.00207368,0.00066297,-0.000000504,7.72522E-06,0.00062069,0.060219,102.76,99.54,7.3828,-0.0010443,0.016256
1696.8,-0.00224372,0.00207368,0.00066297,-0.000000504,7.72522E-06,0.00062069,0.060219,102.76,99.54,7.3828,-0.0010443,0.016256
1696.9,-0.00224372,0.00207368,0.00066297,-0.000000504,7.72522E-06,0.00062069,0.060219,102.76,99.54,7.3828,-0.0010443,0.016256
1697,-0.00224372,0.00207368,0.00066297,-0.000000504,7.72522E-06,0.00062069,0.060219,102.76,99.54,7.3828,-0.0010443,0.016256
1697,-0.00224082,0.00207111,0.00066288,-2.88677E-07,4.43676E-06,0.00061991,0.12457,103.27,99.091,7.4148,-0.00069287,0.010918
1697.1,-0.00224082,0.00207111,0.00066288,-2.88677E-07,4.43676E-06,0.00061991,0.12457,103.27,99.091,7.4148,-0.00069287,0.010918
1697.1,-0.00224082,0.00207111,0.00066288,-2.88677E-07,4.43676E-06,0.00061991,0.12457,103.27,99.091,7.4148,-0.00069287,0.010918
1697.2,-0.00224082,0.00207111,0.00066288,-2.88677E-07,4.43676E-06,0.00061991,0.12457,103.27,99.091,7.4148,-0.00069287,0.010918
1697.3,-0.00224082,0.00207111,0.00066288,-2.88677E-07,4.43676E-06,0.00061991,0.12457,103.27,99.091,7.4148,-0.00069287,0.010918
1697.3,-0.00224082,0.00207111,0.00066288,-2.88677E-07,4.43676E-06,0.00061991,0.12457,103.27,99.091,7.4148,-0.00069287,0.010918
1697.4,-0.00224082,0.00207111,0.00066288,-2.88677E-07,4.43676E-06,0.00061991,0.12457,103.27,99.091,7.4148,-0.00069287,0.010918
1697.4,-0.00224082,0.00207111,0.00066288,-2.88677E-07,4.43676E-06,0.00061991,0.12457,103.27,99.091,7.4148,-0.00069287,0.010918
1697.5,-0.00224082,0.00207111,0.00066288,-2.88677E-07,4.43676E-06,0.00061991,0.12457,103.27,99.091,7.4148,-0.00069287,0.010918
1697.6,-0.00224082,0.00207111,0.00066288,-2.88677E-07,4.43676E-06,0.00061991,0.12457,103.27,99.091,7.4148,-0.00069287,0.010918
1697.6,-0.00224082,0.00207111,0.00066288,-2.88677E-07,4.43676E-06,0.00061991,0.12457,103.27,99.091,7.4148,-0.00069287,0.010918
1697.7,-0.00224082,0.00207111,0.00066288,-2.88677E-07,4.43676E-06,0.00061991,0.12457,103.27,99.091,7.4148,-0.00069287,0.010918
1697.7,-0.00224082,0.00207111,0.00066288,-2.88677E-07,4.43676E-06,0.00061991,0.12457,103.27,99.091,7.4148,-0.00069287,0.010918
1697.8,-0.00224082,0.00207111,0.00066288,-2.88677E-07,4.43676E-06,0.00061991,0.12457,103.27,99.091,7.4148,-0.00069287,0.010918
1697.9,-0.00224082,0.00207111,0.00066288,-2.88677E-07,4.43676E-06,0.00061991,0.12457,103.27,99.091,7.4148,-0.00069287,0.010918
1697.9,-0.00224082,0.00207111,0.00066288,-2.88677E-07,4.43676E-06,0.00061991,0.12457,103.27,99.091,7.4148,-0.00069287,0.010918
1698,-0.00224082,0.00207111,0.00066288,-2.88677E-07,4.43676E-06,0.00061991,0.12457,103.27,99.091,7.4148,-0.00069287,0.010918
1698,-0.00223798,0.00206857,0.0006628,-1.404576E-07,2.17621E-06,0.00061916,0.19104,104.06,98.286,7.4671,-0.00040296,0.0065322
1698.1,-0.00223798,0.00206857,0.0006628,-1.404576E-07,2.17621E-06,0.00061916,0.19104,104.06,98.286,7.4671,-0.00040296,0.0065322
1698.2,-0.00223798,0.00206857,0.0006628,-1.404576E-07,2.17621E-06,0.00061916,0.19104,104.06,98.286,7.4671,-0.00040296,0.0065322
1698.2,-0.00223798,0.00206857,0.0006628,-1.404576E-07,2.17621E-06,0.00061916,0.19104,104.06,98.286,7.4671,-0.00040296,0.0065322
1698.3,-0.00223798,0.00206857,0.0006628,-1.404576E-07,2.17621E-06,0.00061916,0.19104,104.06,98.286,7.4671,-0.00040296,0.0065322
1698.3,-0.00223798,0.00206857,0.0006628,-1.404576E-07,2.17621E-06,0.00061916,0.19104,104.06,98.286,7.4671,-0.00040296,0.0065322
1698.4,-0.00223798,0.00206857,0.0006628,-1.404576E-07,2.17621E-06,0.00061916,0.19104,104.06,98.286,7.4671,-0.00040296,0.0065322
1698.5,-0.00223798,0.00206857,0.0006628,-1.404576E-07,2.17621E-06,0.00061916,0.19104,104.06,98.286,7.4671,-0.00040296,0.0065322
1698.5,-0.00223798,0.00206857,0.0006628,-1.404576E-07,2.17621E-06,0.00061916,0.19104,104.06,98.286,7.4671,-0.00040296,0.0065322
1698.6,-0.00223798,0.00206857,0.0006628,-1.404576E-07,2.17621E-06,0.00061916,0.19104,104.06,98.286,7.4671,-0.00040296,0.0065322
1698.6,-0.00223798,0.00206857,0.0006628,-1.404576E-07,2.17621E-06,0.00061916,0.19104,104.06,98.286,7.4671,-0.00040296,0.0065322
1698.7,-0.00223798,0.00206857,0.0006628,-1.404576E-07,2.17621E-06,0.00061916,0.19104,104.06,98.286,7.4671,-0.00040296,0.0065322
1698.8,-0.00223798,0.00206857,0.0006628,-1.404576E-07,2.17621E-06,0.00061916,0.19104,104.06,98.286,7.4671,-0.00040296,0.0065322
1698.8,-0.00223798,0.00206857,0.0006628,-1.404576E-07,2.17621E-06,0.00061916,0.19104,104.06,98.286,7.4671,-0.00040296,0.0065322
1698.9,-0.00223798,0.00206857,0.0006628,-1.404576E-07,2.17621E-06,0.00061916,0.19104,104.06,98.286,7.4671,-0.00040296,0.0065322
1698.9,-0.00223798,0.00206857,0.0006628,-1.404576E-07,2.17621E-06,0.00061916,0.19104,104.06,98.286,7.4671,-0.00040296,0.0065322
1699,-0.00223798,0.00206857,0.0006628,-1.404576E-07,2.17621E-06,0.00061916,0.19104,104.06,98.286,7.4671,-0.00040296,0.0065322
1699.1,-0.00223567,0.00206601,0.00066271,-4.77179E-08,7.64772E-07,0.00061846,0.26081,105.3,96.863,7.5513,-0.00015719,0.0028468
1699.1,-0.00223567,0.00206601,0.00066271,-4.77179E-08,7.64772E-07,0.00061846,0.26081,105.3,96.863,7.5513,-0.00015719,0.0028468
1699.2,-0.00223567,0.00206601,0.00066271,-4.77179E-08,7.64772E-07,0.00061846,0.26081,105.3,96.863,7.5513,-0.00015719,0.0028468
1699.2,-0.00223567,0.00206601,0.00066271,-4.77179E-08,7.64772E-07,0.00061846,0.26081,105.3,96.863,7.5513,-0.00015719,0.0028468
1699.3,-0.00223567,0.00206601,0.00066271,-4.77179E-08,7.64772E-07,0.00061846,0.26081,105.3,96.863,7.5513,-0.00015719,0.0028468
1699.4,-0.00223567,0.00206601,0.00066271,-4.77179E-08,7.64772E-07,0.00061846,0.26081,105.3,96.863,7.5513,-0.00015719,0.0028468
1699.4,-0.00223567,0.00206601,0.00066271,-4.77179E-08,7.64772E-07,0.00061846,0.26081,105.3,96.863,7.5513,-0.00015719,0.0028468
1699.5,-0.00223567,0.00206601,0.00066271,-4.77179E-08,7.64772E-07,0.00061846,0.26081,105.3,96.863,7.5513,-0.00015719,0.0028468
1699.5,-0.00223567,0.00206601,0.00066271,-4.77179E-08,7.64772E-07,0.00061846,0.26081,105.3,96.863,7.5513,-0.00015719,0.0028468
1699.6,-0.00223567,0.00206601,0.00066271,-4.77179E-08,7.64772E-07,0.00061846,0.26081,105.3,96.863,7.5513,-0.00015719,0.0028468
1699.7,-0.00223567,0.00206601,0.00066271,-4.77179E-08,7.64772E-07,0.00061846,0.26081,105.3,96.863,7.5513,-0.00015719,0.0028468
1699.7,-0.00223567,0.00206601,0.00066271,-4.77179E-08,7.64772E-07,0.00061846,0.26081,105.3,96.863,7.5513,-0.00015719,0.0028468
1699.8,-0.00223567,0.00206601,0.00066271,-4.77179E-08,7.64772E-07,0.00061846,0.26081,105.3,96.863,7.5513,-0.00015719,0.0028468
1699.8,-0.00223567,0.00206601,0.00066271,-4.77179E-08,7.64772E-07,0.00061846,0.26081,105.3,96.863,7.5513,-0.00015719,0.0028468
1699.9,-0.00223567,0.00206601,0.00066271,-4.77179E-08,7.64772E-07,0.00061846,0.26081,105.3,96.863,7.5513,-0.00015719,0.0028468
1700,-0.00223567,0.00206601,0.00066271,-4.77179E-08,7.64772E-07,0.00061846,0.26081,105.3,96.863,7.5513,-0.00015719,0.0028468
1700,-0.00223409,0.0020635,0.00066263,4.7812E-09,-0.000000026,0.00061788,0.33394,106.98,94.673,7.6668,6.13E-05,-0.00037193
1700.1,-0.00223409,0.0020635,0.00066263,4.7812E-09,-0.000000026,0.00061788,0.33394,106.98,94.673,7.6668,6.13E-05,-0.00037193
1700.1,-0.00223409,0.0020635,0.00066263,4.7812E-09,-0.000000026,0.00061788,0.33394,106.98,94.673,7.6668,6.13E-05,-0.00037193
1700.2,-0.00223409,0.0020635,0.00066263,4.7812E-09,-0.000000026,0.00061788,0.33394,106.98,94.673,7.6668,6.13E-05,-0.00037193
1700.3,-0.00223409,0.0020635,0.00066263,4.7812E-09,-0.000000026,0.00061788,0.33394,106.98,94.673,7.6668,6.13E-05,-0.00037193
1700.3,-0.00223409,0.0020635,0.00066263,4.7812E-09,-0.000000026,0.00061788,0.33394,106.98,94.673,7.6668,6.13E-05,-0.00037193
1700.4,-0.00223409,0.0020635,0.00066263,4.7812E-09,-0.000000026,0.00061788,0.33394,106.98,94.673,7.6668,6.13E-05,-0.00037193
1700.4,-0.00223409,0.0020635,0.00066263,4.7812E-09,-0.000000026,0.00061788,0.33394,106.98,94.673,7.6668,6.13E-05,-0.00037193
1700.5,-0.00223409,0.0020635,0.00066263,4.7812E-09,-0.000000026,0.00061788,0.33394,106.98,94.673,7.6668,6.13E-05,-0.00037193
1700.6,-0.00223409,0.0020635,0.00066263,4.7812E-09,-0.000000026,0.00061788,0.33394,106.98,94.673,7.6668,6.13E-05,-0.00037193
1700.6,-0.00223409,0.0020635,0.00066263,4.7812E-09,-0.000000026,0.00061788,0.33394,106.98,94.673,7.6668,6.13E-05,-0.00037193
1700.7,-0.00223409,0.0020635,0.00066263,4.7812E-09,-0.000000026,0.00061788,0.33394,106.98,94.673,7.6668,6.13E-05,-0.00037193
1700.7,-0.00223409,0.0020635,0.00066263,4.7812E-09,-0.000000026,0.00061788,0.33394,106.98,94.673,7.6668,6.13E-05,-0.00037193
1700.8,-0.00223409,0.0020635,0.00066263,4.7812E-09,-0.000000026,0.00061788,0.33394,106.98,94.673,7.6668,6.13E-05,-0.00037193
1700.9,-0.00223409,0.0020635,0.00066263,4.7812E-09,-0.000000026,0.00061788,0.33394,106.98,94.673,7.6668,6.13E-05,-0.00037193
1700.9,-0.00223409,0.0020635,0.00066263,4.7812E-09,-0.000000026,0.00061788,0.33394,106.98,94.673,7.6668,6.13E-05,-0.00037193
1701,-0.00223409,0.0020635,0.00066263,4.7812E-09,-0.000000026,0.00061788,0.33394,106.98,94.673,7.6668,6.13E-05,-0.00037193
1701,-0.00223333,0.00206093,0.00066255,3.22298E-08,-4.29888E-07,0.00061741,0.40789,108.72,92.086,7.7864,0.00025852,-0.0031806
1701.1,-0.00223333,0.00206093,0.00066255,3.22298E-08,-4.29888E-07,0.00061741,0.40789,108.72,92.086,7.7864,0.00025852,-0.0031806
1701.2,-0.00223333,0.00206093,0.00066255,3.22298E-08,-4.29888E-07,0.00061741,0.40789,108.72,92.086,7.7864,0.00025852,-0.0031806
1701.2,-0.00223333,0.00206093,0.00066255,3.22298E-08,-4.29888E-07,0.00061741,0.40789,108.72,92.086,7.7864,0.00025852,-0.0031806
1701.3,-0.00223333,0.00206093,0.00066255,3.22298E-08,-4.29888E-07,0.00061741,0.40789,108.72,92.086,7.7864,0.00025852,-0.0031806
1701.3,-0.00223333,0.00206093,0.00066255,3.22298E-08,-4.29888E-07,0.00061741,0.40789,108.72,92.086,7.7864,0.00025852,-0.0031806
1701.4,-0.00223333,0.00206093,0.00066255,3.22298E-08,-4.29888E-07,0.00061741,0.40789,108.72,92.086,7.7864,0.00025852,-0.0031806
1701.5,-0.00223333,0.00206093,0.00066255,3.22298E-08,-4.29888E-07,0.00061741,0.40789,108.72,92.086,7.7864,0.00025852,-0.0031806
1701.5,-0.00223333,0.00206093,0.00066255,3.22298E-08,-4.29888E-07,0.00061741,0.40789,108.72,92.086,7.7864,0.00025852,-0.0031806
1701.6,-0.00223333,0.00206093,0.00066255,3.22298E-08,-4.29888E-07,0.00061741,0.40789,108.72,92.086,7.7864,0.00025852,-0.0031806
1701.6,-0.00223333,0.00206093,0.00066255,3.22298E-08,-4.29888E-07,0.00061741,0.40789,108.72,92.086,7.7864,0.00025852,-0.0031806
1701.7,-0.00223333,0.00206093,0.00066255,3.22298E-08,-4.29888E-07,0.00061741,0.40789,108.72,92.086,7.7864,0.00025852,-0.0031806
1701.8,-0.00223333,0.00206093,0.00066255,3.22298E-08,-4.29888E-07,0.00061741,0.40789,108.72,92.086,7.7864,0.00025852,-0.0031806
1701.8,-0.00223333,0.00206093,0.00066255,3.22298E-08,-4.29888E-07,0.00061741,0.40789,108.72,92.086,7.7864,0.00025852,-0.0031806
1701.9,-0.00223333,0.00206093,0.00066255,3.22298E-08,-4.29888E-07,0.00061741,0.40789,108.72,92.086,7.7864,0.00025852,-0.0031806
1701.9,-0.00223333,0.00206093,0.00066255,3.22298E-08,-4.29888E-07,0.00061741,0.40789,108.72,92.086,7.7864,0.00025852,-0.0031806
1702,-0.00223333,0.00206093,0.00066255,3.22298E-08,-4.29888E-07,0.00061741,0.40789,108.72,92.086,7.7864,0.00025852,-0.0031806
1702.1,-0.00223287,0.00205839,0.00066246,4.56543E-08,-6.22471E-07,0.00061697,0.48049,110.13,89.726,7.8823,0.00042551,-0.0054761
1702.1,-0.00223287,0.00205839,0.00066246,4.56543E-08,-6.22471E-07,0.00061697,0.48049,110.13,89.726,7.8823,0.00042551,-0.0054761
1702.2,-0.00223287,0.00205839,0.00066246,4.56543E-08,-6.22471E-07,0.00061697,0.48049,110.13,89.726,7.8823,0.00042551,-0.0054761
1702.2,-0.00223287,0.00205839,0.00066246,4.56543E-08,-6.22471E-07,0.00061697,0.48049,110.13,89.726,7.8823,0.00042551,-0.0054761
1702.3,-0.00223287,0.00205839,0.00066246,4.56543E-08,-6.22471E-07,0.00061697,0.48049,110.13,89.726,7.8823,0.00042551,-0.0054761
1702.4,-0.00223287,0.00205839,0.00066246,4.56543E-08,-6.22471E-07,0.00061697,0.48049,110.13,89.726,7.8823,0.00042551,-0.0054761
1702.4,-0.00223287,0.00205839,0.00066246,4.56543E-08,-6.22471E-07,0.00061697,0.48049,110.13,89.726,7.8823,0.00042551,-0.0054761
1702.5,-0.00223287,0.00205839,0.00066246,4.56543E-08,-6.22471E-07,0.00061697,0.48049,110.13,89.726,7.8823,0.00042551,-0.0054761
1702.5,-0.00223287,0.00205839,0.00066246,4.56543E-08,-6.22471E-07,0.00061697,0.48049,110.13,89.726,7.8823,0.00042551,-0.0054761
1702.6,-0.00223287,0.00205839,0.00066246,4.56543E-08,-6.22471E-07,0.00061697,0.48049,110.13,89.726,7.8823,0.00042551,-0.0054761
1702.7,-0.00223287,0.00205839,0.00066246,4.56543E-08,-6.22471E-07,0.00061697,0.48049,110.13,89.726,7.8823,0.00042551,-0.0054761
1702.7,-0.00223287,0.00205839,0.00066246,4.56543E-08,-6.22471E-07,0.00061697,0.48049,110.13,89.726,7.8823,0.00042551,-0.0054761
1702.8,-0.00223287,0.00205839,0.00066246,4.56543E-08,-6.22471E-07,0.00061697,0.48049,110.13,89.726,7.8823,0.00042551,-0.0054761
1702.8,-0.00223287,0.00205839,0.00066246,4.56543E-08,-6.22471E-07,0.00061697,0.48049,110.13,89.726,7.8823,0.00042551,-0.0054761
1702.9,-0.00223287,0.00205839,0.00066246,4.56543E-08,-6.22471E-07,0.00061697,0.48049,110.13,89.726,7.8823,0.00042551,-0.0054761
1703,-0.00223287,0.00205839,0.00066246,4.56543E-08,-6.22471E-07,0.00061697,0.48049,110.13,89.726,7.8823,0.00042551,-0.0054761
1703,-0.002232,0.00205585,0.00066238,5.18835E-08,-7.0953E-07,0.00061649,0.55124,111.12,87.928,7.9482,0.00055877,-0.0072711
1703.1,-0.002232,0.00205585,0.00066238,5.18835E-08,-7.0953E-07,0.00061649,0.55124,111.12,87.928,7.9482,0.00055877,-0.0072711
1703.1,-0.002232,0.00205585,0.00066238,5.18835E-08,-7.0953E-07,0.00061649,0.55124,111.12,87.928,7.9482,0.00055877,-0.0072711
1703.2,-0.002232,0.00205585,0.00066238,5.18835E-08,-7.0953E-07,0.00061649,0.55124,111.12,87.928,7.9482,0.00055877,-0.0072711
1703.3,-0.002232,0.00205585,0.00066238,5.18835E-08,-7.0953E-07,0.00061649,0.55124,111.12,87.928,7.9482,0.00055877,-0.0072711
1703.3,-0.002232,0.00205585,0.00066238,5.18835E-08,-7.0953E-07,0.00061649,0.55124,111.12,87.928,7.9482,0.00055877,-0.0072711
1703.4,-0.002232,0.00205585,0.00066238,5.18835E-08,-7.0953E-07,0.00061649,0.55124,111.12,87.928,7.9482,0.00055877,-0.0072711
1703.4,-0.002232,0.00205585,0.00066238,5.18835E-08,-7.0953E-07,0.00061649,0.55124,111.12,87.928,7.9482,0.00055877,-0.0072711
1703.5,-0.002232,0.00205585,0.00066238,5.18835E-08,-7.0953E-07,0.00061649,0.55124,111.12,87.928,7.9482,0.00055877,-0.0072711
1703.6,-0.002232,0.00205585,0.00066238,5.18835E-08,-7.0953E-07,0.00061649,0.55124,111.12,87.928,7.9482,0.00055877,-0.0072711
1703.6,-0.002232,0.00205585,0.00066238,5.18835E-08,-7.0953E-07,0.00061649,0.55124,111.12,87.928,7.9482,0.00055877,-0.0072711
1703.7,-0.002232,0.00205585,0.00066238,5.18835E-08,-7.0953E-07,0.00061649,0.55124,111.12,87.928,7.9482,0.00055877,-0.0072711
1703.7,-0.002232,0.00205585,0.00066238,5.18835E-08,-7.0953E-07,0.00061649,0.55124,111.12,87.928,7.9482,0.00055877,-0.0072711
1703.8,-0.002232,0.00205585,0.00066238,5.18835E-08,-7.0953E-07,0.00061649,0.55124,111.12,87.928,7.9482,0.00055877,-0.0072711
1703.9,-0.002232,0.00205585,0.00066238,5.18835E-08,-7.0953E-07,0.00061649,0.55124,111.12,87.928,7.9482,0.00055877,-0.0072711
1703.9,-0.002232,0.00205585,0.00066238,5.18835E-08,-7.0953E-07,0.00061649,0.55124,111.12,87.928,7.9482,0.00055877,-0.0072711
1704,-0.002232,0.00205585,0.00066238,5.18835E-08,-7.0953E-07,0.00061649,0.55124,111.12,87.928,7.9482,0.00055877,-0.0072711
1704,-0.00223054,0.00205334,0.0006623,5.3589E-08,-7.3182E-07,0.00061591,0.62005,111.72,86.805,7.987,0.000656,-0.0085566
1704.1,-0.00223054,0.00205334,0.0006623,5.3589E-08,-7.3182E-07,0.00061591,0.62005,111.72,86.805,7.987,0.000656,-0.0085566
1704.2,-0.00223054,0.00205334,0.0006623,5.3589E-08,-7.3182E-07,0.00061591,0.62005,111.72,86.805,7.987,0.000656,-0.0085566
1704.2,-0.00223054,0.00205334,0.0006623,5.3589E-08,-7.3182E-07,0.00061591,0.62005,111.72,86.805,7.987,0.000656,-0.0085566
1704.3,-0.00223054,0.00205334,0.0006623,5.3589E-08,-7.3182E-07,0.00061591,0.62005,111.72,86.805,7.987,0.000656,-0.0085566
1704.3,-0.00223054,0.00205334,0.0006623,5.3589E-08,-7.3182E-07,0.00061591,0.62005,111.72,86.805,7.987,0.000656,-0.0085566
1704.4,-0.00223054,0.00205334,0.0006623,5.3589E-08,-7.3182E-07,0.00061591,0.62005,111.72,86.805,7.987,0.000656,-0.0085566
1704.5,-0.00223054,0.00205334,0.0006623,5.3589E-08,-7.3182E-07,0.00061591,0.62005,111.72,86.805,7.987,0.000656,-0.0085566
1704.5,-0.00223054,0.00205334,0.0006623,5.3589E-08,-7.3182E-07,0.00061591,0.62005,111.72,86.805,7.987,0.000656,-0.0085566
1704.6,-0.00223054,0.00205334,0.0006623,5.3589E-08,-7.3182E-07,0.00061591,0.62005,111.72,86.805,7.987,0.000656,-0.0085566
1704.6,-0.00223054,0.00205334,0.0006623,5.3589E-08,-7.3182E-07,0.00061591,0.62005,111.72,86.805,7.987,0.000656,-0.0085566
1704.7,-0.00223054,0.00205334,0.0006623,5.3589E-08,-7.3182E-07,0.00061591,0.62005,111.72,86.805,7.987,0.000656,-0.0085566
1704.8,-0.00223054,0.00205334,0.0006623,5.3589E-08,-7.3182E-07,0.00061591,0.62005,111.72,86.805,7.987,0.000656,-0.0085566
1704.8,-0.00223054,0.00205334,0.0006623,5.3589E-08,-7.3182E-07,0.00061591,0.62005,111.72,86.805,7.987,0.000656,-0.0085566
1704.9,-0.00223054,0.00205334,0.0006623,5.3589E-08,-7.3182E-07,0.00061591,0.62005,111.72,86.805,7.987,0.000656,-0.0085566
1704.9,-0.00223054,0.00205334,0.0006623,5.3589E-08,-7.3182E-07,0.00061591,0.62005,111.72,86.805,7.987,0.000656,-0.0085566
1705,-0.00223054,0.00205334,0.0006623,5.3589E-08,-7.3182E-07,0.00061591,0.62005,111.72,86.805,7.987,0.000656,-0.0085566
1705.1,-0.00222803,0.00205079,0.00066221,5.1698E-08,-7.0409E-07,0.00061519,0.68716,112,86.392,8.0019,0.00071593,-0.0093546
1705.1,-0.00222803,0.00205079,0.00066221,5.1698E-08,-7.0409E-07,0.00061519,0.68716,112,86.392,8.0019,0.00071593,-0.0093546
1705.2,-0.00222803,0.00205079,0.00066221,5.1698E-08,-7.0409E-07,0.00061519,0.68716,112,86.392,8.0019,0.00071593,-0.0093546
1705.2,-0.00222803,0.00205079,0.00066221,5.1698E-08,-7.0409E-07,0.00061519,0.68716,112,86.392,8.0019,0.00071593,-0.0093546
1705.3,-0.00222803,0.00205079,0.00066221,5.1698E-08,-7.0409E-07,0.00061519,0.68716,112,86.392,8.0019,0.00071593,-0.0093546
1705.4,-0.00222803,0.00205079,0.00066221,5.1698E-08,-7.0409E-07,0.00061519,0.68716,112,86.392,8.0019,0.00071593,-0.0093546
1705.4,-0.00222803,0.00205079,0.00066221,5.1698E-08,-7.0409E-07,0.00061519,0.68716,112,86.392,8.0019,0.00071593,-0.0093546
1705.5,-0.00222803,0.00205079,0.00066221,5.1698E-08,-7.0409E-07,0.00061519,0.68716,112,86.392,8.0019,0.00071593,-0.0093546
1705.5,-0.00222803,0.00205079,0.00066221,5.1698E-08,-7.0409E-07,0.00061519,0.68716,112,86.392,8.0019,0.00071593,-0.0093546
1705.6,-0.00222803,0.00205079,0.00066221,5.1698E-08,-7.0409E-07,0.00061519,0.68716,112,86.392,8.0019,0.00071593,-0.0093546
1705.7,-0.00222803,0.00205079,0.00066221,5.1698E-08,-7.0409E-07,0.00061519,0.68716,112,86.392,8.0019,0.00071593,-0.0093546
1705.7,-0.00222803,0.00205079,0.00066221,5.1698E-08,-7.0409E-07,0.00061519,0.68716,112,86.392,8.0019,0.00071593,-0.0093546
1705.8,-0.00222803,0.00205079,0.00066221,5.1698E-08,-7.0409E-07,0.00061519,0.68716,112,86.392,8.0019,0.00071593,-0.0093546
1705.8,-0.00222803,0.00205079,0.00066221,5.1698E-08,-7.0409E-07,0.00061519,0.68716,112,86.392,8.0019,0.00071593,-0.0093546
1705.9,-0.00222803,0.00205079,0.00066221,5.1698E-08,-7.0409E-07,0.00061519,0.68716,112,86.392,8.0019,0.00071593,-0.0093546
1706,-0.00222803,0.00205079,0.00066221,5.1698E-08,-7.0409E-07,0.00061519,0.68716,112,86.392,8.0019,0.00071593,-0.0093546
1706,-0.00222466,0.00204827,0.00066214,0.000000047,-6.3782E-07,0.00061434,0.75111,111.96,86.704,7.9942,0.00072725,-0.0095141
1706.1,-0.00222466,0.00204827,0.00066214,0.000000047,-6.3782E-07,0.00061434,0.75111,111.96,86.704,7.9942,0.00072725,-0.0095141
1706.1,-0.00222466,0.00204827,0.00066214,0.000000047,-6.3782E-07,0.00061434,0.75111,111.96,86.704,7.9942,0.00072725,-0.0095141
1706.2,-0.00222466,0.00204827,0.00066214,0.000000047,-6.3782E-07,0.00061434,0.75111,111.96,86.704,7.9942,0.00072725,-0.0095141
1706.3,-0.00222466,0.00204827,0.00066214,0.000000047,-6.3782E-07,0.00061434,0.75111,111.96,86.704,7.9942,0.00072725,-0.0095141
1706.3,-0.00222466,0.00204827,0.00066214,0.000000047,-6.3782E-07,0.00061434,0.75111,111.96,86.704,7.9942,0.00072725,-0.0095141
1706.4,-0.00222466,0.00204827,0.00066214,0.000000047,-6.3782E-07,0.00061434,0.75111,111.96,86.704,7.9942,0.00072725,-0.0095141
1706.4,-0.00222466,0.00204827,0.00066214,0.000000047,-6.3782E-07,0.00061434,0.75111,111.96,86.704,7.9942,0.00072725,-0.0095141
1706.5,-0.00222466,0.00204827,0.00066214,0.000000047,-6.3782E-07,0.00061434,0.75111,111.96,86.704,7.9942,0.00072725,-0.0095141
1706.6,-0.00222466,0.00204827,0.00066214,0.000000047,-6.3782E-07,0.00061434,0.75111,111.96,86.704,7.9942,0.00072725,-0.0095141
1706.6,-0.00222466,0.00204827,0.00066214,0.000000047,-6.3782E-07,0.00061434,0.75111,111.96,86.704,7.9942,0.00072725,-0.0095141
1706.7,-0.00222466,0.00204827,0.00066214,0.000000047,-6.3782E-07,0.00061434,0.75111,111.96,86.704,7.9942,0.00072725,-0.0095141
1706.7,-0.00222466,0.00204827,0.00066214,0.000000047,-6.3782E-07,0.00061434,0.75111,111.96,86.704,7.9942,0.00072725,-0.0095141
1706.8,-0.00222466,0.00204827,0.00066214,0.000000047,-6.3782E-07,0.00061434,0.75111,111.96,86.704,7.9942,0.00072725,-0.0095141
1706.9,-0.00222466,0.00204827,0.00066214,0.000000047,-6.3782E-07,0.00061434,0.75111,111.96,86.704,7.9942,0.00072725,-0.0095141
1706.9,-0.00222466,0.00204827,0.00066214,0.000000047,-6.3782E-07,0.00061434,0.75111,111.96,86.704,7.9942,0.00072725,-0.0095141
1707,-0.00222466,0.00204827,0.00066214,0.000000047,-6.3782E-07,0.00061434,0.75111,111.96,86.704,7.9942,0.00072725,-0.0095141
1707,-0.0022203,0.00204573,0.00066205,4.0121E-08,-5.3952E-07,0.00061335,0.81371,111.58,87.758,7.9626,0.00067257,-0.0087867
1707.1,-0.0022203,0.00204573,0.00066205,4.0121E-08,-5.3952E-07,0.00061335,0.81371,111.58,87.758,7.9626,0.00067257,-0.0087867
1707.2,-0.0022203,0.00204573,0.00066205,4.0121E-08,-5.3952E-07,0.00061335,0.81371,111.58,87.758,7.9626,0.00067257,-0.0087867
1707.2,-0.0022203,0.00204573,0.00066205,4.0121E-08,-5.3952E-07,0.00061335,0.81371,111.58,87.758,7.9626,0.00067257,-0.0087867
1707.3,-0.0022203,0.00204573,0.00066205,4.0121E-08,-5.3952E-07,0.00061335,0.81371,111.58,87.758,7.9626,0.00067257,-0.0087867
1707.3,-0.0022203,0.00204573,0.00066205,4.0121E-08,-5.3952E-07,0.00061335,0.81371,111.58,87.758,7.9626,0.00067257,-0.0087867
1707.4,-0.0022203,0.00204573,0.00066205,4.0121E-08,-5.3952E-07,0.00061335,0.81371,111.58,87.758,7.9626,0.00067257,-0.0087867
1707.5,-0.0022203,0.00204573,0.00066205,4.0121E-08,-5.3952E-07,0.00061335,0.81371,111.58,87.758,7.9626,0.00067257,-0.0087867
1707.5,-0.0022203,0.00204573,0.00066205,4.0121E-08,-5.3952E-07,0.00061335,0.81371,111.58,87.758,7.9626,0.00067257,-0.0087867
1707.6,-0.0022203,0.00204573,0.00066205,4.0121E-08,-5.3952E-07,0.00061335,0.81371,111.58,87.758,7.9626,0.00067257,-0.0087867
1707.6,-0.0022203,0.00204573,0.00066205,4.0121E-08,-5.3952E-07,0.00061335,0.81371,111.58,87.758,7.9626,0.00067257,-0.0087867
1707.7,-0.0022203,0.00204573,0.00066205,4.0121E-08,-5.3952E-07,0.00061335,0.81371,111.58,87.758,7.9626,0.00067257,-0.0087867
1707.8,-0.0022203,0.00204573,0.00066205,4.0121E-08,-5.3952E-07,0.00061335,0.81371,111.58,87.758,7.9626,0.00067257,-0.0087867
1707.8,-0.0022203,0.00204573,0.00066205,4.0121E-08,-5.3952E-07,0.00061335,0.81371,111.58,87.758,7.9626,0.00067257,-0.0087867
1707.9,-0.0022203,0.00204573,0.00066205,4.0121E-08,-5.3952E-07,0.00061335,0.81371,111.58,87.758,7.9626,0.00067257,-0.0087867
1707.9,-0.0022203,0.00204573,0.00066205,4.0121E-08,-5.3952E-07,0.00061335,0.81371,111.58,87.758,7.9626,0.00067257,-0.0087867
1708,-0.00221513,0.00204326,0.00066197,3.17345E-08,-4.2119E-07,0.00061225,0.86968,110.82,89.519,7.904,0.00052001,-0.0067468
1708.1,-0.00221513,0.00204326,0.00066197,3.17345E-08,-4.2119E-07,0.00061225,0.86968,110.82,89.519,7.904,0.00052001,-0.0067468
1708.1,-0.00221513,0.00204326,0.00066197,3.17345E-08,-4.2119E-07,0.00061225,0.86968,110.82,89.519,7.904,0.00052001,-0.0067468
1708.2,-0.00221513,0.00204326,0.00066197,3.17345E-08,-4.2119E-07,0.00061225,0.86968,110.82,89.519,7.904,0.00052001,-0.0067468
1708.2,-0.00221513,0.00204326,0.00066197,3.17345E-08,-4.2119E-07,0.00061225,0.86968,110.82,89.519,7.904,0.00052001,-0.0067468
1708.3,-0.00221513,0.00204326,0.00066197,3.17345E-08,-4.2119E-07,0.00061225,0.86968,110.82,89.519,7.904,0.00052001,-0.0067468
1708.4,-0.00221513,0.00204326,0.00066197,3.17345E-08,-4.2119E-07,0.00061225,0.86968,110.82,89.519,7.904,0.00052001,-0.0067468
1708.4,-0.00221513,0.00204326,0.00066197,3.17345E-08,-4.2119E-07,0.00061225,0.86968,110.82,89.519,7.904,0.00052001,-0.0067468
1708.5,-0.00221513,0.00204326,0.00066197,3.17345E-08,-4.2119E-07,0.00061225,0.86968,110.82,89.519,7.904,0.00052001,-0.0067468
1708.5,-0.00221513,0.00204326,0.00066197,3.17345E-08,-4.2119E-07,0.00061225,0.86968,110.82,89.519,7.904,0.00052001,-0.0067468
1708.6,-0.00221513,0.00204326,0.00066197,3.17345E-08,-4.2119E-07,0.00061225,0.86968,110.82,89.519,7.904,0.00052001,-0.0067468
1708.7,-0.00221513,0.00204326,0.00066197,3.17345E-08,-4.2119E-07,0.00061225,0.86968,110.82,89.519,7.904,0.00052001,-0.0067468
1708.7,-0.00221513,0.00204326,0.00066197,3.17345E-08,-4.2119E-07,0.00061225,0.86968,110.82,89.519,7.904,0.00052001,-0.0067468
1708.8,-0.00221513,0.00204326,0.00066197,3.17345E-08,-4.2119E-07,0.00061225,0.86968,110.82,89.519,7.904,0.00052001,-0.0067468
1708.8,-0.00221513,0.00204326,0.00066197,3.17345E-08,-4.2119E-07,0.00061225,0.86968,110.82,89.519,7.904,0.00052001,-0.0067468
1708.9,-0.00221513,0.00204326,0.00066197,3.17345E-08,-4.2119E-07,0.00061225,0.86968,110.82,89.519,7.904,0.00052001,-0.0067468
1709,-0.00221513,0.00204326,0.00066197,3.17345E-08,-4.2119E-07,0.00061225,0.86968,110.82,89.519,7.904,0.00052001,-0.0067468
1709,-0.00220954,0.00204076,0.00066188,2.75329E-08,-0.000000361,0.00061109,0.93378,109.72,91.788,7.8203,0.00041917,-0.005485
1709.1,-0.00220954,0.00204076,0.00066188,2.75329E-08,-0.000000361,0.00061109,0.93378,109.72,91.788,7.8203,0.00041917,-0.005485
1709.1,-0.00220954,0.00204076,0.00066188,2.75329E-08,-0.000000361,0.00061109,0.93378,109.72,91.788,7.8203,0.00041917,-0.005485
1709.2,-0.00220954,0.00204076,0.00066188,2.75329E-08,-0.000000361,0.00061109,0.93378,109.72,91.788,7.8203,0.00041917,-0.005485
1709.3,-0.00220954,0.00204076,0.00066188,2.75329E-08,-0.000000361,0.00061109,0.93378,109.72,91.788,7.8203,0.00041917,-0.005485
1709.3,-0.00220954,0.00204076,0.00066188,2.75329E-08,-0.000000361,0.00061109,0.93378,109.72,91.788,7.8203,0.00041917,-0.005485
1709.4,-0.00220954,0.00204076,0.00066188,2.75329E-08,-0.000000361,0.00061109,0.93378,109.72,91.788,7.8203,0.00041917,-0.005485
1709.4,-0.00220954,0.00204076,0.00066188,2.75329E-08,-0.000000361,0.00061109,0.93378,109.72,91.788,7.8203,0.00041917,-0.005485
1709.5,-0.00220954,0.00204076,0.00066188,2.75329E-08,-0.000000361,0.00061109,0.93378,109.72,91.788,7.8203,0.00041917,-0.005485
1709.6,-0.00220954,0.00204076,0.00066188,2.75329E-08,-0.000000361,0.00061109,0.93378,109.72,91.788,7.8203,0.00041917,-0.005485
1709.6,-0.00220954,0.00204076,0.00066188,2.75329E-08,-0.000000361,0.00061109,0.93378,109.72,91.788,7.8203,0.00041917,-0.005485
1709.7,-0.00220954,0.00204076,0.00066188,2.75329E-08,-0.000000361,0.00061109,0.93378,109.72,91.788,7.8203,0.00041917,-0.005485
1709.7,-0.00220954,0.00204076,0.00066188,2.75329E-08,-0.000000361,0.00061109,0.93378,109.72,91.788,7.8203,0.00041917,-0.005485
1709.8,-0.00220954,0.00204076,0.00066188,2.75329E-08,-0.000000361,0.00061109,0.93378,109.72,91.788,7.8203,0.00041917,-0.005485
1709.9,-0.00220954,0.00204076,0.00066188,2.75329E-08,-0.000000361,0.00061109,0.93378,109.72,91.788,7.8203,0.00041917,-0.005485
1709.9,-0.00220954,0.00204076,0.00066188,2.75329E-08,-0.000000361,0.00061109,0.93378,109.72,91.788,7.8203,0.00041917,-0.005485
1710,-0.00220954,0.00204076,0.00066188,2.75329E-08,-0.000000361,0.00061109,0.93378,109.72,91.788,7.8203,0.00041917,-0.005485
1710,-0.0022044,0.00203828,0.0006618,0.000000029,-3.7913E-07,0.00060999,0.98888,108.46,94.059,7.7259,0.00049072,-0.0066372
1710.1,-0.0022044,0.00203828,0.0006618,0.000000029,-3.7913E-07,0.00060999,0.98888,108.46,94.059,7.7259,0.00049072,-0.0066372
1710.2,-0.0022044,0.00203828,0.0006618,0.000000029,-3.7913E-07,0.00060999,0.98888,108.46,94.059,7.7259,0.00049072,-0.0066372
1710.2,-0.0022044,0.00203828,0.0006618,0.000000029,-3.7913E-07,0.00060999,0.98888,108.46,94.059,7.7259,0.00049072,-0.0066372
1710.3,-0.0022044,0.00203828,0.0006618,0.000000029,-3.7913E-07,0.00060999,0.98888,108.46,94.059,7.7259,0.00049072,-0.0066372
1710.3,-0.0022044,0.00203828,0.0006618,0.000000029,-3.7913E-07,0.00060999,0.98888,108.46,94.059,7.7259,0.00049072,-0.0066372
1710.4,-0.0022044,0.00203828,0.0006618,0.000000029,-3.7913E-07,0.00060999,0.98888,108.46,94.059,7.7259,0.00049072,-0.0066372
1710.5,-0.0022044,0.00203828,0.0006618,0.000000029,-3.7913E-07,0.00060999,0.98888,108.46,94.059,7.7259,0.00049072,-0.0066372
1710.5,-0.0022044,0.00203828,0.0006618,0.000000029,-3.7913E-07,0.00060999,0.98888,108.46,94.059,7.7259,0.00049072,-0.0066372
1710.6,-0.0022044,0.00203828,0.0006618,0.000000029,-3.7913E-07,0.00060999,0.98888,108.46,94.059,7.7259,0.00049072,-0.0066372
1710.6,-0.0022044,0.00203828,0.0006618,0.000000029,-3.7913E-07,0.00060999,0.98888,108.46,94.059,7.7259,0.00049072,-0.0066372
1710.7,-0.0022044,0.00203828,0.0006618,0.000000029,-3.7913E-07,0.00060999,0.98888,108.46,94.059,7.7259,0.00049072,-0.0066372
1710.8,-0.0022044,0.00203828,0.0006618,0.000000029,-3.7913E-07,0.00060999,0.98888,108.46,94.059,7.7259,0.00049072,-0.0066372
1710.8,-0.0022044,0.00203828,0.0006618,0.000000029,-3.7913E-07,0.00060999,0.98888,108.46,94.059,7.7259,0.00049072,-0.0066372
1710.9,-0.0022044,0.00203828,0.0006618,0.000000029,-3.7913E-07,0.00060999,0.98888,108.46,94.059,7.7259,0.00049072,-0.0066372
1710.9,-0.0022044,0.00203828,0.0006618,0.000000029,-3.7913E-07,0.00060999,0.98888,108.46,94.059,7.7259,0.00049072,-0.0066372
1711,-0.00221316,0.00203575,0.00066172,2.96109E-08,-3.8717E-07,0.00061089,1.0276,105.15,92.634,7.4855,0.0005092,-0.0069944
1711.1,-0.00221316,0.00203575,0.00066172,2.96109E-08,-3.8717E-07,0.00061089,1.0276,105.15,92.634,7.4855,0.0005092,-0.0069944
1711.1,-0.00221316,0.00203575,0.00066172,2.96109E-08,-3.8717E-07,0.00061089,1.0276,105.15,92.634,7.4855,0.0005092,-0.0069944
1711.2,-0.00221316,0.00203575,0.00066172,2.96109E-08,-3.8717E-07,0.00061089,1.0276,105.15,92.634,7.4855,0.0005092,-0.0069944
1711.2,-0.00221316,0.00203575,0.00066172,2.96109E-08,-3.8717E-07,0.00061089,1.0276,105.15,92.634,7.4855,0.0005092,-0.0069944
1711.3,-0.00221316,0.00203575,0.00066172,2.96109E-08,-3.8717E-07,0.00061089,1.0276,105.15,92.634,7.4855,0.0005092,-0.0069944
1711.4,-0.00221316,0.00203575,0.00066172,2.96109E-08,-3.8717E-07,0.00061089,1.0276,105.15,92.634,7.4855,0.0005092,-0.0069944
1711.4,-0.00221316,0.00203575,0.00066172,2.96109E-08,-3.8717E-07,0.00061089,1.0276,105.15,92.634,7.4855,0.0005092,-0.0069944
1711.5,-0.00221316,0.00203575,0.00066172,2.96109E-08,-3.8717E-07,0.00061089,1.0276,105.15,92.634,7.4855,0.0005092,-0.0069944
1711.5,-0.00221316,0.00203575,0.00066172,2.96109E-08,-3.8717E-07,0.00061089,1.0276,105.15,92.634,7.4855,0.0005092,-0.0069944
1711.6,-0.00221316,0.00203575,0.00066172,2.96109E-08,-3.8717E-07,0.00061089,1.0276,105.15,92.634,7.4855,0.0005092,-0.0069944
1711.7,-0.00221316,0.00203575,0.00066172,2.96109E-08,-3.8717E-07,0.00061089,1.0276,105.15,92.634,7.4855,0.0005092,-0.0069944
1711.7,-0.00221316,0.00203575,0.00066172,2.96109E-08,-3.8717E-07,0.00061089,1.0276,105.15,92.634,7.4855,0.0005092,-0.0069944
1711.8,-0.00221316,0.00203575,0.00066172,2.96109E-08,-3.8717E-07,0.00061089,1.0276,105.15,92.634,7.4855,0.0005092,-0.0069944
1711.8,-0.00221316,0.00203575,0.00066172,2.96109E-08,-3.8717E-07,0.00061089,1.0276,105.15,92.634,7.4855,0.0005092,-0.0069944
1711.9,-0.00221316,0.00203575,0.00066172,2.96109E-08,-3.8717E-07,0.00061089,1.0276,105.15,92.634,7.4855,0.0005092,-0.0069944
1712,-0.00221316,0.00203575,0.00066172,2.96109E-08,-3.8717E-07,0.00061089,1.0276,105.15,92.634,7.4855,0.0005092,-0.0069944
1712,-0.00224206,0.0020331,0.00066164,2.78306E-08,-3.6439E-07,0.00061466,1.0476,98.572,86.2,7.0109,0.00049626,-0.0068223
1712.1,-0.00224206,0.0020331,0.00066164,2.78306E-08,-3.6439E-07,0.00061466,1.0476,98.572,86.2,7.0109,0.00049626,-0.0068223
1712.1,-0.00224206,0.0020331,0.00066164,2.78306E-08,-3.6439E-07,0.00061466,1.0476,98.572,86.2,7.0109,0.00049626,-0.0068223
1712.2,-0.00224206,0.0020331,0.00066164,2.78306E-08,-3.6439E-07,0.00061466,1.0476,98.572,86.2,7.0109,0.00049626,-0.0068223
1712.3,-0.00224206,0.0020331,0.00066164,2.78306E-08,-3.6439E-07,0.00061466,1.0476,98.572,86.2,7.0109,0.00049626,-0.0068223
1712.3,-0.00224206,0.0020331,0.00066164,2.78306E-08,-3.6439E-07,0.00061466,1.0476,98.572,86.2,7.0109,0.00049626,-0.0068223
1712.4,-0.00224206,0.0020331,0.00066164,2.78306E-08,-3.6439E-07,0.00061466,1.0476,98.572,86.2,7.0109,0.00049626,-0.0068223
1712.4,-0.00224206,0.0020331,0.00066164,2.78306E-08,-3.6439E-07,0.00061466,1.0476,98.572,86.2,7.0109,0.00049626,-0.0068223
1712.5,-0.00224206,0.0020331,0.00066164,2.78306E-08,-3.6439E-07,0.00061466,1.0476,98.572,86.2,7.0109,0.00049626,-0.0068223
1712.6,-0.00224206,0.0020331,0.00066164,2.78306E-08,-3.6439E-07,0.00061466,1.0476,98.572,86.2,7.0109,0.00049626,-0.0068223
1712.6,-0.00224206,0.0020331,0.00066164,2.78306E-08,-3.6439E-07,0.00061466,1.0476,98.572,86.2,7.0109,0.00049626,-0.0068223
1712.7,-0.00224206,0.0020331,0.00066164,2.78306E-08,-3.6439E-07,0.00061466,1.0476,98.572,86.2,7.0109,0.00049626,-0.0068223
1712.7,-0.00224206,0.0020331,0.00066164,2.78306E-08,-3.6439E-07,0.00061466,1.0476,98.572,86.2,7.0109,0.00049626,-0.0068223
1712.8,-0.00224206,0.0020331,0.00066164,2.78306E-08,-3.6439E-07,0.00061466,1.0476,98.572,86.2,7.0109,0.00049626,-0.0068223
1712.9,-0.00224206,0.0020331,0.00066164,2.78306E-08,-3.6439E-07,0.00061466,1.0476,98.572,86.2,7.0109,0.00049626,-0.0068223
1712.9,-0.00224206,0.0020331,0.00066164,2.78306E-08,-3.6439E-07,0.00061466,1.0476,98.572,86.2,7.0109,0.00049626,-0.0068223
1713,-0.00224206,0.0020331,0.00066164,2.78306E-08,-3.6439E-07,0.00061466,1.0476,98.572,86.2,7.0109,0.00049626,-0.0068223
1713,-0.00227124,0.00203038,0.00066155,2.60587E-08,-3.4174E-07,0.00061847,1.0634,91.951,79.678,6.5338,0.00048358,-0.0066521
1713.1,-0.00227124,0.00203038,0.00066155,2.60587E-08,-3.4174E-07,0.00061847,1.0634,91.951,79.678,6.5338,0.00048358,-0.0066521
1713.2,-0.00227124,0.00203038,0.00066155,2.60587E-08,-3.4174E-07,0.00061847,1.0634,91.951,79.678,6.5338,0.00048358,-0.0066521
1713.2,-0.00227124,0.00203038,0.00066155,2.60587E-08,-3.4174E-07,0.00061847,1.0634,91.951,79.678,6.5338,0.00048358,-0.0066521
1713.3,-0.00227124,0.00203038,0.00066155,2.60587E-08,-3.4174E-07,0.00061847,1.0634,91.951,79.678,6.5338,0.00048358,-0.0066521
1713.3,-0.00227124,0.00203038,0.00066155,2.60587E-08,-3.4174E-07,0.00061847,1.0634,91.951,79.678,6.5338,0.00048358,-0.0066521
1713.4,-0.00227124,0.00203038,0.00066155,2.60587E-08,-3.4174E-07,0.00061847,1.0634,91.951,79.678,6.5338,0.00048358,-0.0066521
1713.5,-0.00227124,0.00203038,0.00066155,2.60587E-08,-3.4174E-07,0.00061847,1.0634,91.951,79.678,6.5338,0.00048358,-0.0066521
1713.5,-0.00227124,0.00203038,0.00066155,2.60587E-08,-3.4174E-07,0.00061847,1.0634,91.951,79.678,6.5338,0.00048358,-0.0066521
1713.6,-0.00227124,0.00203038,0.00066155,2.60587E-08,-3.4174E-07,0.00061847,1.0634,91.951,79.678,6.5338,0.00048358,-0.0066521
1713.6,-0.00227124,0.00203038,0.00066155,2.60587E-08,-3.4174E-07,0.00061847,1.0634,91.951,79.678,6.5338,0.00048358,-0.0066521
1713.7,-0.00227124,0.00203038,0.00066155,2.60587E-08,-3.4174E-07,0.00061847,1.0634,91.951,79.678,6.5338,0.00048358,-0.0066521
1713.8,-0.00227124,0.00203038,0.00066155,2.60587E-08,-3.4174E-07,0.00061847,1.0634,91.951,79.678,6.5338,0.00048358,-0.0066521
1713.8,-0.00227124,0.00203038,0.00066155,2.60587E-08,-3.4174E-07,0.00061847,1.0634,91.951,79.678,6.5338,0.00048358,-0.0066521
1713.9,-0.00227124,0.00203038,0.00066155,2.60587E-08,-3.4174E-07,0.00061847,1.0634,91.951,79.678,6.5338,0.00048358,-0.0066521
1713.9,-0.00227124,0.00203038,0.00066155,2.60587E-08,-3.4174E-07,0.00061847,1.0634,91.951,79.678,6.5338,0.00048358,-0.0066521
1714,-0.00230067,0.00202772,0.00066147,2.43086E-08,-3.1942E-07,0.00062231,1.0751,85.302,73.093,6.0549,0.00047119,-0.0064845
1714.1,-0.00230067,0.00202772,0.00066147,2.43086E-08,-3.1942E-07,0.00062231,1.0751,85.302,73.093,6.0549,0.00047119,-0.0064845
1714.1,-0.00230067,0.00202772,0.00066147,2.43086E-08,-3.1942E-07,0.00062231,1.0751,85.302,73.093,6.0549,0.00047119,-0.0064845
1714.2,-0.00230067,0.00202772,0.00066147,2.43086E-08,-3.1942E-07,0.00062231,1.0751,85.302,73.093,6.0549,0.00047119,-0.0064845
1714.2,-0.00230067,0.00202772,0.00066147,2.43086E-08,-3.1942E-07,0.00062231,1.0751,85.302,73.093,6.0549,0.00047119,-0.0064845
1714.3,-0.00230067,0.00202772,0.00066147,2.43086E-08,-3.1942E-07,0.00062231,1.0751,85.302,73.093,6.0549,0.00047119,-0.0064845
1714.4,-0.00230067,0.00202772,0.00066147,2.43086E-08,-3.1942E-07,0.00062231,1.0751,85.302,73.093,6.0549,0.00047119,-0.0064845
1714.4,-0.00230067,0.00202772,0.00066147,2.43086E-08,-3.1942E-07,0.00062231,1.0751,85.302,73.093,6.0549,0.00047119,-0.0064845
1714.5,-0.00230067,0.00202772,0.00066147,2.43086E-08,-3.1942E-07,0.00062231,1.0751,85.302,73.093,6.0549,0.00047119,-0.0064845
1714.5,-0.00230067,0.00202772,0.00066147,2.43086E-08,-3.1942E-07,0.00062231,1.0751,85.302,73.093,6.0549,0.00047119,-0.0064845
1714.6,-0.00230067,0.00202772,0.00066147,2.43086E-08,-3.1942E-07,0.00062231,1.0751,85.302,73.093,6.0549,0.00047119,-0.0064845
1714.7,-0.00230067,0.00202772,0.00066147,2.43086E-08,-3.1942E-07,0.00062231,1.0751,85.302,73.093,6.0549,0.00047119,-0.0064845
1714.7,-0.00230067,0.00202772,0.00066147,2.43086E-08,-3.1942E-07,0.00062231,1.0751,85.302,73.093,6.0549,0.00047119,-0.0064845
1714.8,-0.00230067,0.00202772,0.00066147,2.43086E-08,-3.1942E-07,0.00062231,1.0751,85.302,73.093,6.0549,0.00047119,-0.0064845
1714.8,-0.00230067,0.00202772,0.00066147,2.43086E-08,-3.1942E-07,0.00062231,1.0751,85.302,73.093,6.0549,0.00047119,-0.0064845
1714.9,-0.00230067,0.00202772,0.00066147,2.43086E-08,-3.1942E-07,0.00062231,1.0751,85.302,73.093,6.0549,0.00047119,-0.0064845
1715,-0.00230067,0.00202772,0.00066147,2.43086E-08,-3.1942E-07,0.00062231,1.0751,85.302,73.093,6.0549,0.00047119,-0.0064845
1715,-0.00233028,0.00202493,0.00066139,2.2596E-08,-2.9762E-07,0.000626179,1.0828,78.632,66.461,5.5749,0.00045907,-0.0063199
1715.1,-0.00233028,0.00202493,0.00066139,2.2596E-08,-2.9762E-07,0.000626179,1.0828,78.632,66.461,5.5749,0.00045907,-0.0063199
1715.1,-0.00233028,0.00202493,0.00066139,2.2596E-08,-2.9762E-07,0.000626179,1.0828,78.632,66.461,5.5749,0.00045907,-0.0063199
1715.2,-0.00233028,0.00202493,0.00066139,2.2596E-08,-2.9762E-07,0.000626179,1.0828,78.632,66.461,5.5749,0.00045907,-0.0063199
1715.3,-0.00233028,0.00202493,0.00066139,2.2596E-08,-2.9762E-07,0.000626179,1.0828,78.632,66.461,5.5749,0.00045907,-0.0063199
1715.3,-0.00233028,0.00202493,0.00066139,2.2596E-08,-2.9762E-07,0.000626179,1.0828,78.632,66.461,5.5749,0.00045907,-0.0063199
1715.4,-0.00233028,0.00202493,0.00066139,2.2596E-08,-2.9762E-07,0.000626179,1.0828,78.632,66.461,5.5749,0.00045907,-0.0063199
1715.4,-0.00233028,0.00202493,0.00066139,2.2596E-08,-2.9762E-07,0.000626179,1.0828,78.632,66.461,5.5749,0.00045907,-0.0063199
1715.5,-0.00233028,0.00202493,0.00066139,2.2596E-08,-2.9762E-07,0.000626179,1.0828,78.632,66.461,5.5749,0.00045907,-0.0063199
1715.6,-0.00233028,0.00202493,0.00066139,2.2596E-08,-2.9762E-07,0.000626179,1.0828,78.632,66.461,5.5749,0.00045907,-0.0063199
1715.6,-0.00233028,0.00202493,0.00066139,2.2596E-08,-2.9762E-07,0.000626179,1.0828,78.632,66.461,5.5749,0.00045907,-0.0063199
1715.7,-0.00233028,0.00202493,0.00066139,2.2596E-08,-2.9762E-07,0.000626179,1.0828,78.632,66.461,5.5749,0.00045907,-0.0063199
1715.7,-0.00233028,0.00202493,0.00066139,2.2596E-08,-2.9762E-07,0.000626179,1.0828,78.632,66.461,5.5749,0.00045907,-0.0063199
1715.8,-0.00233028,0.00202493,0.00066139,2.2596E-08,-2.9762E-07,0.000626179,1.0828,78.632,66.461,5.5749,0.00045907,-0.0063199
1715.9,-0.00233028,0.00202493,0.00066139,2.2596E-08,-2.9762E-07,0.000626179,1.0828,78.632,66.461,5.5749,0.00045907,-0.0063199
1715.9,-0.00233028,0.00202493,0.00066139,2.2596E-08,-2.9762E-07,0.000626179,1.0828,78.632,66.461,5.5749,0.00045907,-0.0063199
1716,-0.00233028,0.00202493,0.00066139,2.2596E-08,-2.9762E-07,0.000626179,1.0828,78.632,66.461,5.5749,0.00045907,-0.0063199
1716,-0.00235993,0.00202222,0.00066131,2.0933E-08,-2.7653E-07,0.000630055,1.0864,71.948,59.795,5.0941,0.00044722,-0.0061585
1716.1,-0.00235993,0.00202222,0.00066131,2.0933E-08,-2.7653E-07,0.000630055,1.0864,71.948,59.795,5.0941,0.00044722,-0.0061585
1716.2,-0.00235993,0.00202222,0.00066131,2.0933E-08,-2.7653E-07,0.000630055,1.0864,71.948,59.795,5.0941,0.00044722,-0.0061585
1716.2,-0.00235993,0.00202222,0.00066131,2.0933E-08,-2.7653E-07,0.000630055,1.0864,71.948,59.795,5.0941,0.00044722,-0.0061585
1716.3,-0.00235993,0.00202222,0.00066131,2.0933E-08,-2.7653E-07,0.000630055,1.0864,71.948,59.795,5.0941,0.00044722,-0.0061585
1716.3,-0.00235993,0.00202222,0.00066131,2.0933E-08,-2.7653E-07,0.000630055,1.0864,71.948,59.795,5.0941,0.00044722,-0.0061585
1716.4,-0.00235993,0.00202222,0.00066131,2.0933E-08,-2.7653E-07,0.000630055,1.0864,71.948,59.795,5.0941,0.00044722,-0.0061585
1716.5,-0.00235993,0.00202222,0.00066131,2.0933E-08,-2.7653E-07,0.000630055,1.0864,71.948,59.795,5.0941,0.00044722,-0.0061585
1716.5,-0.00235993,0.00202222,0.00066131,2.0933E-08,-2.7653E-07,0.000630055,1.0864,71.948,59.795,5.0941,0.00044722,-0.0061585
1716.6,-0.00235993,0.00202222,0.00066131,2.0933E-08,-2.7653E-07,0.000630055,1.0864,71.948,59.795,5.0941,0.00044722,-0.0061585
1716.6,-0.00235993,0.00202222,0.00066131,2.0933E-08,-2.7653E-07,0.000630055,1.0864,71.948,59.795,5.0941,0.00044722,-0.0061585
1716.7,-0.00235993,0.00202222,0.00066131,2.0933E-08,-2.7653E-07,0.000630055,1.0864,71.948,59.795,5.0941,0.00044722,-0.0061585
1716.8,-0.00235993,0.00202222,0.00066131,2.0933E-08,-2.7653E-07,0.000630055,1.0864,71.948,59.795,5.0941,0.00044722,-0.0061585
1716.8,-0.00235993,0.00202222,0.00066131,2.0933E-08,-2.7653E-07,0.000630055,1.0864,71.948,59.795,5.0941,0.00044722,-0.0061585
1716.9,-0.00235993,0.00202222,0.00066131,2.0933E-08,-2.7653E-07,0.000630055,1.0864,71.948,59.795,5.0941,0.00044722,-0.0061585
1716.9,-0.00235993,0.00202222,0.00066131,2.0933E-08,-2.7653E-07,0.000630055,1.0864,71.948,59.795,5.0941,0.00044722,-0.0061585
1717,-0.00238975,0.00201951,0.00066123,1.93327E-08,-2.563E-07,0.000633945,1.0861,65.255,53.107,4.613,0.00043565,-0.0060009
1717.1,-0.00238975,0.00201951,0.00066123,1.93327E-08,-2.563E-07,0.000633945,1.0861,65.255,53.107,4.613,0.00043565,-0.0060009
1717.1,-0.00238975,0.00201951,0.00066123,1.93327E-08,-2.563E-07,0.000633945,1.0861,65.255,53.107,4.613,0.00043565,-0.0060009
1717.2,-0.00238975,0.00201951,0.00066123,1.93327E-08,-2.563E-07,0.000633945,1.0861,65.255,53.107,4.613,0.00043565,-0.0060009
1717.2,-0.00238975,0.00201951,0.00066123,1.93327E-08,-2.563E-07,0.000633945,1.0861,65.255,53.107,4.613,0.00043565,-0.0060009
1717.3,-0.00238975,0.00201951,0.00066123,1.93327E-08,-2.563E-07,0.000633945,1.0861,65.255,53.107,4.613,0.00043565,-0.0060009
1717.4,-0.00238975,0.00201951,0.00066123,1.93327E-08,-2.563E-07,0.000633945,1.0861,65.255,53.107,4.613,0.00043565,-0.0060009
1717.4,-0.00238975,0.00201951,0.00066123,1.93327E-08,-2.563E-07,0.000633945,1.0861,65.255,53.107,4.613,0.00043565,-0.0060009
1717.5,-0.00238975,0.00201951,0.00066123,1.93327E-08,-2.563E-07,0.000633945,1.0861,65.255,53.107,4.613,0.00043565,-0.0060009
1717.5,-0.00238975,0.00201951,0.00066123,1.93327E-08,-2.563E-07,0.000633945,1.0861,65.255,53.107,4.613,0.00043565,-0.0060009
1717.6,-0.00238975,0.00201951,0.00066123,1.93327E-08,-2.563E-07,0.000633945,1.0861,65.255,53.107,4.613,0.00043565,-0.0060009
1717.7,-0.00238975,0.00201951,0.00066123,1.93327E-08,-2.563E-07,0.000633945,1.0861,65.255,53.107,4.613,0.00043565,-0.0060009
1717.7,-0.00238975,0.00201951,0.00066123,1.93327E-08,-2.563E-07,0.000633945,1.0861,65.255,53.107,4.613,0.00043565,-0.0060009
1717.8,-0.00238975,0.00201951,0.00066123,1.93327E-08,-2.563E-07,0.000633945,1.0861,65.255,53.107,4.613,0.00043565,-0.0060009
1717.8,-0.00238975,0.00201951,0.00066123,1.93327E-08,-2.563E-07,0.000633945,1.0861,65.255,53.107,4.613,0.00043565,-0.0060009
1717.9,-0.00238975,0.00201951,0.00066123,1.93327E-08,-2.563E-07,0.000633945,1.0861,65.255,53.107,4.613,0.00043565,-0.0060009
1718,-0.00238975,0.00201951,0.00066123,1.93327E-08,-2.563E-07,0.000633945,1.0861,65.255,53.107,4.613,0.00043565,-0.0060009
1718,-0.00241954,0.00201671,0.00066114,1.78023E-08,-2.37053E-07,0.000637833,1.0817,58.558,46.403,4.1318,0.00042437,-0.0058472
1718.1,-0.00241954,0.00201671,0.00066114,1.78023E-08,-2.37053E-07,0.000637833,1.0817,58.558,46.403,4.1318,0.00042437,-0.0058472
1718.1,-0.00241954,0.00201671,0.00066114,1.78023E-08,-2.37053E-07,0.000637833,1.0817,58.558,46.403,4.1318,0.00042437,-0.0058472
1718.2,-0.00241954,0.00201671,0.00066114,1.78023E-08,-2.37053E-07,0.000637833,1.0817,58.558,46.403,4.1318,0.00042437,-0.0058472
1718.3,-0.00241954,0.00201671,0.00066114,1.78023E-08,-2.37053E-07,0.000637833,1.0817,58.558,46.403,4.1318,0.00042437,-0.0058472
1718.3,-0.00241954,0.00201671,0.00066114,1.78023E-08,-2.37053E-07,0.000637833,1.0817,58.558,46.403,4.1318,0.00042437,-0.0058472
1718.4,-0.00241954,0.00201671,0.00066114,1.78023E-08,-2.37053E-07,0.000637833,1.0817,58.558,46.403,4.1318,0.00042437,-0.0058472
1718.4,-0.00241954,0.00201671,0.00066114,1.78023E-08,-2.37053E-07,0.000637833,1.0817,58.558,46.403,4.1318,0.00042437,-0.0058472
1718.5,-0.00241954,0.00201671,0.00066114,1.78023E-08,-2.37053E-07,0.000637833,1.0817,58.558,46.403,4.1318,0.00042437,-0.0058472
1718.6,-0.00241954,0.00201671,0.00066114,1.78023E-08,-2.37053E-07,0.000637833,1.0817,58.558,46.403,4.1318,0.00042437,-0.0058472
1718.6,-0.00241954,0.00201671,0.00066114,1.78023E-08,-2.37053E-07,0.000637833,1.0817,58.558,46.403,4.1318,0.00042437,-0.0058472
1718.7,-0.00241954,0.00201671,0.00066114,1.78023E-08,-2.37053E-07,0.000637833,1.0817,58.558,46.403,4.1318,0.00042437,-0.0058472
1718.7,-0.00241954,0.00201671,0.00066114,1.78023E-08,-2.37053E-07,0.000637833,1.0817,58.558,46.403,4.1318,0.00042437,-0.0058472
1718.8,-0.00241954,0.00201671,0.00066114,1.78023E-08,-2.37053E-07,0.000637833,1.0817,58.558,46.403,4.1318,0.00042437,-0.0058472
1718.9,-0.00241954,0.00201671,0.00066114,1.78023E-08,-2.37053E-07,0.000637833,1.0817,58.558,46.403,4.1318,0.00042437,-0.0058472
1718.9,-0.00241954,0.00201671,0.00066114,1.78023E-08,-2.37053E-07,0.000637833,1.0817,58.558,46.403,4.1318,0.00042437,-0.0058472
1719,-0.00241954,0.00201671,0.00066114,1.78023E-08,-2.37053E-07,0.000637833,1.0817,58.558,46.403,4.1318,0.00042437,-0.0058472
1719,-0.00244944,0.00201392,0.00066106,1.63439E-08,-2.18813E-07,0.000641724,1.0735,51.858,39.69,3.6508,0.0004134,-0.0056977
1719.1,-0.00244944,0.00201392,0.00066106,1.63439E-08,-2.18813E-07,0.000641724,1.0735,51.858,39.69,3.6508,0.0004134,-0.0056977
1719.2,-0.00244944,0.00201392,0.00066106,1.63439E-08,-2.18813E-07,0.000641724,1.0735,51.858,39.69,3.6508,0.0004134,-0.0056977
1719.2,-0.00244944,0.00201392,0.00066106,1.63439E-08,-2.18813E-07,0.000641724,1.0735,51.858,39.69,3.6508,0.0004134,-0.0056977
1719.3,-0.00244944,0.00201392,0.00066106,1.63439E-08,-2.18813E-07,0.000641724,1.0735,51.858,39.69,3.6508,0.0004134,-0.0056977
1719.3,-0.00244944,0.00201392,0.00066106,1.63439E-08,-2.18813E-07,0.000641724,1.0735,51.858,39.69,3.6508,0.0004134,-0.0056977
1719.4,-0.00244944,0.00201392,0.00066106,1.63439E-08,-2.18813E-07,0.000641724,1.0735,51.858,39.69,3.6508,0.0004134,-0.0056977
1719.5,-0.00244944,0.00201392,0.00066106,1.63439E-08,-2.18813E-07,0.000641724,1.0735,51.858,39.69,3.6508,0.0004134,-0.0056977
1719.5,-0.00244944,0.00201392,0.00066106,1.63439E-08,-2.18813E-07,0.000641724,1.0735,51.858,39.69,3.6508,0.0004134,-0.0056977
1719.6,-0.00244944,0.00201392,0.00066106,1.63439E-08,-2.18813E-07,0.000641724,1.0735,51.858,39.69,3.6508,0.0004134,-0.0056977
1719.6,-0.00244944,0.00201392,0.00066106,1.63439E-08,-2.18813E-07,0.000641724,1.0735,51.858,39.69,3.6508,0.0004134,-0.0056977
1719.7,-0.00244944,0.00201392,0.00066106,1.63439E-08,-2.18813E-07,0.000641724,1.0735,51.858,39.69,3.6508,0.0004134,-0.0056977
1719.8,-0.00244944,0.00201392,0.00066106,1.63439E-08,-2.18813E-07,0.000641724,1.0735,51.858,39.69,3.6508,0.0004134,-0.0056977
1719.8,-0.00244944,0.00201392,0.00066106,1.63439E-08,-2.18813E-07,0.000641724,1.0735,51.858,39.69,3.6508,0.0004134,-0.0056977
1719.9,-0.00244944,0.00201392,0.00066106,1.63439E-08,-2.18813E-07,0.000641724,1.0735,51.858,39.69,3.6508,0.0004134,-0.0056977
1719.9,-0.00244944,0.00201392,0.00066106,1.63439E-08,-2.18813E-07,0.000641724,1.0735,51.858,39.69,3.6508,0.0004134,-0.0056977
1720,-0.00247925,0.00201115,0.00066099,0.000000015,-2.01547E-07,0.00064562,1.0613,45.158,32.971,3.17,0.00040273,-0.0055527
1720.1,-0.00247925,0.00201115,0.00066099,0.000000015,-2.01547E-07,0.00064562,1.0613,45.158,32.971,3.17,0.00040273,-0.0055527
1720.1,-0.00247925,0.00201115,0.00066099,0.000000015,-2.01547E-07,0.00064562,1.0613,45.158,32.971,3.17,0.00040273,-0.0055527
1720.2,-0.00247925,0.00201115,0.00066099,0.000000015,-2.01547E-07,0.00064562,1.0613,45.158,32.971,3.17,0.00040273,-0.0055527
1720.2,-0.00247925,0.00201115,0.00066099,0.000000015,-2.01547E-07,0.00064562,1.0613,45.158,32.971,3.17,0.00040273,-0.0055527
1720.3,-0.00247925,0.00201115,0.00066099,0.000000015,-2.01547E-07,0.00064562,1.0613,45.158,32.971,3.17,0.00040273,-0.0055527
1720.4,-0.00247925,0.00201115,0.00066099,0.000000015,-2.01547E-07,0.00064562,1.0613,45.158,32.971,3.17,0.00040273,-0.0055527
1720.4,-0.00247925,0.00201115,0.00066099,0.000000015,-2.01547E-07,0.00064562,1.0613,45.158,32.971,3.17,0.00040273,-0.0055527
1720.5,-0.00247925,0.00201115,0.00066099,0.000000015,-2.01547E-07,0.00064562,1.0613,45.158,32.971,3.17,0.00040273,-0.0055527
1720.5,-0.00247925,0.00201115,0.00066099,0.000000015,-2.01547E-07,0.00064562,1.0613,45.158,32.971,3.17,0.00040273,-0.0055527
1720.6,-0.00247925,0.00201115,0.00066099,0.000000015,-2.01547E-07,0.00064562,1.0613,45.158,32.971,3.17,0.00040273,-0.0055527
1720.7,-0.00247925,0.00201115,0.00066099,0.000000015,-2.01547E-07,0.00064562,1.0613,45.158,32.971,3.17,0.00040273,-0.0055527
1720.7,-0.00247925,0.00201115,0.00066099,0.000000015,-2.01547E-07,0.00064562,1.0613,45.158,32.971,3.17,0.00040273,-0.0055527
1720.8,-0.00247925,0.00201115,0.00066099,0.000000015,-2.01547E-07,0.00064562,1.0613,45.158,32.971,3.17,0.00040273,-0.0055527
1720.8,-0.00247925,0.00201115,0.00066099,0.000000015,-2.01547E-07,0.00064562,1.0613,45.158,32.971,3.17,0.00040273,-0.0055527
1720.9,-0.00247925,0.00201115,0.00066099,0.000000015,-2.01547E-07,0.00064562,1.0613,45.158,32.971,3.17,0.00040273,-0.0055527
1721,-0.00247925,0.00201115,0.00066099,0.000000015,-2.01547E-07,0.00064562,1.0613,45.158,32.971,3.17,0.00040273,-0.0055527
1721,-0.00250909,0.0020084,0.000660895,1.36382E-08,-1.85227E-07,0.000649512,1.0452,38.46,26.248,2.6896,0.00039239,-0.0054123
1721.1,-0.00250909,0.0020084,0.000660895,1.36382E-08,-1.85227E-07,0.000649512,1.0452,38.46,26.248,2.6896,0.00039239,-0.0054123
1721.1,-0.00250909,0.0020084,0.000660895,1.36382E-08,-1.85227E-07,0.000649512,1.0452,38.46,26.248,2.6896,0.00039239,-0.0054123
1721.2,-0.00250909,0.0020084,0.000660895,1.36382E-08,-1.85227E-07,0.000649512,1.0452,38.46,26.248,2.6896,0.00039239,-0.0054123
1721.3,-0.00250909,0.0020084,0.000660895,1.36382E-08,-1.85227E-07,0.000649512,1.0452,38.46,26.248,2.6896,0.00039239,-0.0054123
1721.3,-0.00250909,0.0020084,0.000660895,1.36382E-08,-1.85227E-07,0.000649512,1.0452,38.46,26.248,2.6896,0.00039239,-0.0054123
1721.4,-0.00250909,0.0020084,0.000660895,1.36382E-08,-1.85227E-07,0.000649512,1.0452,38.46,26.248,2.6896,0.00039239,-0.0054123
1721.4,-0.00250909,0.0020084,0.000660895,1.36382E-08,-1.85227E-07,0.000649512,1.0452,38.46,26.248,2.6896,0.00039239,-0.0054123
1721.5,-0.00250909,0.0020084,0.000660895,1.36382E-08,-1.85227E-07,0.000649512,1.0452,38.46,26.248,2.6896,0.00039239,-0.0054123
1721.6,-0.00250909,0.0020084,0.000660895,1.36382E-08,-1.85227E-07,0.000649512,1.0452,38.46,26.248,2.6896,0.00039239,-0.0054123
1721.6,-0.00250909,0.0020084,0.000660895,1.36382E-08,-1.85227E-07,0.000649512,1.0452,38.46,26.248,2.6896,0.00039239,-0.0054123
1721.7,-0.00250909,0.0020084,0.000660895,1.36382E-08,-1.85227E-07,0.000649512,1.0452,38.46,26.248,2.6896,0.00039239,-0.0054123
1721.7,-0.00250909,0.0020084,0.000660895,1.36382E-08,-1.85227E-07,0.000649512,1.0452,38.46,26.248,2.6896,0.00039239,-0.0054123
1721.8,-0.00250909,0.0020084,0.000660895,1.36382E-08,-1.85227E-07,0.000649512,1.0452,38.46,26.248,2.6896,0.00039239,-0.0054123
1721.9,-0.00250909,0.0020084,0.000660895,1.36382E-08,-1.85227E-07,0.000649512,1.0452,38.46,26.248,2.6896,0.00039239,-0.0054123
1721.9,-0.00250909,0.0020084,0.000660895,1.36382E-08,-1.85227E-07,0.000649512,1.0452,38.46,26.248,2.6896,0.00039239,-0.0054123
1722,-0.00250909,0.0020084,0.000660895,1.36382E-08,-1.85227E-07,0.000649512,1.0452,38.46,26.248,2.6896,0.00039239,-0.0054123
1722,-0.002538947,0.00200558,0.000660816,1.23831E-08,-1.69781E-07,0.000653392,1.0252,31.764,19.524,2.2097,0.00038237,-0.0052766
1722.1,-0.002538947,0.00200558,0.000660816,1.23831E-08,-1.69781E-07,0.000653392,1.0252,31.764,19.524,2.2097,0.00038237,-0.0052766
1722.2,-0.002538947,0.00200558,0.000660816,1.23831E-08,-1.69781E-07,0.000653392,1.0252,31.764,19.524,2.2097,0.00038237,-0.0052766
1722.2,-0.002538947,0.00200558,0.000660816,1.23831E-08,-1.69781E-07,0.000653392,1.0252,31.764,19.524,2.2097,0.00038237,-0.0052766
1722.3,-0.002538947,0.00200558,0.000660816,1.23831E-08,-1.69781E-07,0.000653392,1.0252,31.764,19.524,2.2097,0.00038237,-0.0052766
1722.3,-0.002538947,0.00200558,0.000660816,1.23831E-08,-1.69781E-07,0.000653392,1.0252,31.764,19.524,2.2097,0.00038237,-0.0052766
1722.4,-0.002538947,0.00200558,0.000660816,1.23831E-08,-1.69781E-07,0.000653392,1.0252,31.764,19.524,2.2097,0.00038237,-0.0052766
1722.5,-0.002538947,0.00200558,0.000660816,1.23831E-08,-1.69781E-07,0.000653392,1.0252,31.764,19.524,2.2097,0.00038237,-0.0052766
1722.5,-0.002538947,0.00200558,0.000660816,1.23831E-08,-1.69781E-07,0.000653392,1.0252,31.764,19.524,2.2097,0.00038237,-0.0052766
1722.6,-0.002538947,0.00200558,0.000660816,1.23831E-08,-1.69781E-07,0.000653392,1.0252,31.764,19.524,2.2097,0.00038237,-0.0052766
1722.6,-0.002538947,0.00200558,0.000660816,1.23831E-08,-1.69781E-07,0.000653392,1.0252,31.764,19.524,2.2097,0.00038237,-0.0052766
1722.7,-0.002538947,0.00200558,0.000660816,1.23831E-08,-1.69781E-07,0.000653392,1.0252,31.764,19.524,2.2097,0.00038237,-0.0052766
1722.8,-0.002538947,0.00200558,0.000660816,1.23831E-08,-1.69781E-07,0.000653392,1.0252,31.764,19.524,2.2097,0.00038237,-0.0052766
1722.8,-0.002538947,0.00200558,0.000660816,1.23831E-08,-1.69781E-07,0.000653392,1.0252,31.764,19.524,2.2097,0.00038237,-0.0052766
1722.9,-0.002538947,0.00200558,0.000660816,1.23831E-08,-1.69781E-07,0.000653392,1.0252,31.764,19.524,2.2097,0.00038237,-0.0052766
1722.9,-0.002538947,0.00200558,0.000660816,1.23831E-08,-1.69781E-07,0.000653392,1.0252,31.764,19.524,2.2097,0.00038237,-0.0052766
1723,-0.002538947,0.00200558,0.000660816,1.23831E-08,-1.69781E-07,0.000653392,1.0252,31.764,19.524,2.2097,0.00038237,-0.0052766
1723.1,-0.002568836,0.00200269,0.000660733,1.1187E-08,-1.55146E-07,0.00065728,1.0013,25.071,12.799,1.7303,0.0003727,-0.0051458
1723.1,-0.002568836,0.00200269,0.000660733,1.1187E-08,-1.55146E-07,0.00065728,1.0013,25.071,12.799,1.7303,0.0003727,-0.0051458
1723.2,-0.002568836,0.00200269,0.000660733,1.1187E-08,-1.55146E-07,0.00065728,1.0013,25.071,12.799,1.7303,0.0003727,-0.0051458
1723.2,-0.002568836,0.00200269,0.000660733,1.1187E-08,-1.55146E-07,0.00065728,1.0013,25.071,12.799,1.7303,0.0003727,-0.0051458
1723.3,-0.002568836,0.00200269,0.000660733,1.1187E-08,-1.55146E-07,0.00065728,1.0013,25.071,12.799,1.7303,0.0003727,-0.0051458
1723.4,-0.002568836,0.00200269,0.000660733,1.1187E-08,-1.55146E-07,0.00065728,1.0013,25.071,12.799,1.7303,0.0003727,-0.0051458
1723.4,-0.002568836,0.00200269,0.000660733,1.1187E-08,-1.55146E-07,0.00065728,1.0013,25.071,12.799,1.7303,0.0003727,-0.0051458
1723.5,-0.002568836,0.00200269,0.000660733,1.1187E-08,-1.55146E-07,0.00065728,1.0013,25.071,12.799,1.7303,0.0003727,-0.0051458
1723.5,-0.002568836,0.00200269,0.000660733,1.1187E-08,-1.55146E-07,0.00065728,1.0013,25.071,12.799,1.7303,0.0003727,-0.0051458
1723.6,-0.002568836,0.00200269,0.000660733,1.1187E-08,-1.55146E-07,0.00065728,1.0013,25.071,12.799,1.7303,0.0003727,-0.0051458
1723.7,-0.002568836,0.00200269,0.000660733,1.1187E-08,-1.55146E-07,0.00065728,1.0013,25.071,12.799,1.7303,0.0003727,-0.0051458
1723.7,-0.002568836,0.00200269,0.000660733,1.1187E-08,-1.55146E-07,0.00065728,1.0013,25.071,12.799,1.7303,0.0003727,-0.0051458
1723.8,-0.002568836,0.00200269,0.000660733,1.1187E-08,-1.55146E-07,0.00065728,1.0013,25.071,12.799,1.7303,0.0003727,-0.0051458
1723.8,-0.002568836,0.00200269,0.000660733,1.1187E-08,-1.55146E-07,0.00065728,1.0013,25.071,12.799,1.7303,0.0003727,-0.0051458
1723.9,-0.002568836,0.00200269,0.000660733,1.1187E-08,-1.55146E-07,0.00065728,1.0013,25.071,12.799,1.7303,0.0003727,-0.0051458
1724,-0.002568836,0.00200269,0.000660733,1.1187E-08,-1.55146E-07,0.00065728,1.0013,25.071,12.799,1.7303,0.0003727,-0.0051458
1724,-0.002598656,0.00199993,0.000660649,0.00000001,-1.41267E-07,0.000661157,0.97348,18.382,6.0732,1.2514,0.00036337,-0.0050199
1724.1,-0.002598656,0.00199993,0.000660649,0.00000001,-1.41267E-07,0.000661157,0.97348,18.382,6.0732,1.2514,0.00036337,-0.0050199
1724.1,-0.002598656,0.00199993,0.000660649,0.00000001,-1.41267E-07,0.000661157,0.97348,18.382,6.0732,1.2514,0.00036337,-0.0050199
1724.2,-0.002598656,0.00199993,0.000660649,0.00000001,-1.41267E-07,0.000661157,0.97348,18.382,6.0732,1.2514,0.00036337,-0.0050199
1724.3,-0.002598656,0.00199993,0.000660649,0.00000001,-1.41267E-07,0.000661157,0.97348,18.382,6.0732,1.2514,0.00036337,-0.0050199
1724.3,-0.002598656,0.00199993,0.000660649,0.00000001,-1.41267E-07,0.000661157,0.97348,18.382,6.0732,1.2514,0.00036337,-0.0050199
1724.4,-0.002598656,0.00199993,0.000660649,0.00000001,-1.41267E-07,0.000661157,0.97348,18.382,6.0732,1.2514,0.00036337,-0.0050199
1724.4,-0.002598656,0.00199993,0.000660649,0.00000001,-1.41267E-07,0.000661157,0.97348,18.382,6.0732,1.2514,0.00036337,-0.0050199
1724.5,-0.002598656,0.00199993,0.000660649,0.00000001,-1.41267E-07,0.000661157,0.97348,18.382,6.0732,1.2514,0.00036337,-0.0050199
1724.6,-0.002598656,0.00199993,0.000660649,0.00000001,-1.41267E-07,0.000661157,0.97348,18.382,6.0732,1.2514,0.00036337,-0.0050199
1724.6,-0.002598656,0.00199993,0.000660649,0.00000001,-1.41267E-07,0.000661157,0.97348,18.382,6.0732,1.2514,0.00036337,-0.0050199
1724.7,-0.002598656,0.00199993,0.000660649,0.00000001,-1.41267E-07,0.000661157,0.97348,18.382,6.0732,1.2514,0.00036337,-0.0050199
1724.7,-0.002598656,0.00199993,0.000660649,0.00000001,-1.41267E-07,0.000661157,0.97348,18.382,6.0732,1.2514,0.00036337,-0.0050199
1724.8,-0.002598656,0.00199993,0.000660649,0.00000001,-1.41267E-07,0.000661157,0.97348,18.382,6.0732,1.2514,0.00036337,-0.0050199
1724.9,-0.002598656,0.00199993,0.000660649,0.00000001,-1.41267E-07,0.000661157,0.97348,18.382,6.0732,1.2514,0.00036337,-0.0050199
1724.9,-0.002598656,0.00199993,0.000660649,0.00000001,-1.41267E-07,0.000661157,0.97348,18.382,6.0732,1.2514,0.00036337,-0.0050199
1725,-0.002598656,0.00199993,0.000660649,0.00000001,-1.41267E-07,0.000661157,0.97348,18.382,6.0732,1.2514,0.00036337,-0.0050199
1725,-0.002628408,0.001996998,0.000660574,0.000000009,-1.28087E-07,0.000665033,0.94183,11.696,-0.65252,0.77302,0.0003544,-0.004899
1725.1,-0.002628408,0.001996998,0.000660574,0.000000009,-1.28087E-07,0.000665033,0.94183,11.696,-0.65252,0.77302,0.0003544,-0.004899
1725.2,-0.002628408,0.001996998,0.000660574,0.000000009,-1.28087E-07,0.000665033,0.94183,11.696,-0.65252,0.77302,0.0003544,-0.004899
1725.2,-0.002628408,0.001996998,0.000660574,0.000000009,-1.28087E-07,0.000665033,0.94183,11.696,-0.65252,0.77302,0.0003544,-0.004899
1725.3,-0.002628408,0.001996998,0.000660574,0.000000009,-1.28087E-07,0.000665033,0.94183,11.696,-0.65252,0.77302,0.0003544,-0.004899
1725.3,-0.002628408,0.001996998,0.000660574,0.000000009,-1.28087E-07,0.000665033,0.94183,11.696,-0.65252,0.77302,0.0003544,-0.004899
1725.4,-0.002628408,0.001996998,0.000660574,0.000000009,-1.28087E-07,0.000665033,0.94183,11.696,-0.65252,0.77302,0.0003544,-0.004899
1725.5,-0.002628408,0.001996998,0.000660574,0.000000009,-1.28087E-07,0.000665033,0.94183,11.696,-0.65252,0.77302,0.0003544,-0.004899
1725.5,-0.002628408,0.001996998,0.000660574,0.000000009,-1.28087E-07,0.000665033,0.94183,11.696,-0.65252,0.77302,0.0003544,-0.004899
1725.6,-0.002628408,0.001996998,0.000660574,0.000000009,-1.28087E-07,0.000665033,0.94183,11.696,-0.65252,0.77302,0.0003544,-0.004899
1725.6,-0.002628408,0.001996998,0.000660574,0.000000009,-1.28087E-07,0.000665033,0.94183,11.696,-0.65252,0.77302,0.0003544,-0.004899
1725.7,-0.002628408,0.001996998,0.000660574,0.000000009,-1.28087E-07,0.000665033,0.94183,11.696,-0.65252,0.77302,0.0003544,-0.004899
1725.8,-0.002628408,0.001996998,0.000660574,0.000000009,-1.28087E-07,0.000665033,0.94183,11.696,-0.65252,0.77302,0.0003544,-0.004899
1725.8,-0.002628408,0.001996998,0.000660574,0.000000009,-1.28087E-07,0.000665033,0.94183,11.696,-0.65252,0.77302,0.0003544,-0.004899
1725.9,-0.002628408,0.001996998,0.000660574,0.000000009,-1.28087E-07,0.000665033,0.94183,11.696,-0.65252,0.77302,0.0003544,-0.004899
1725.9,-0.002628408,0.001996998,0.000660574,0.000000009,-1.28087E-07,0.000665033,0.94183,11.696,-0.65252,0.77302,0.0003544,-0.004899
1726,-0.002658191,0.0019942,0.000660489,7.9147E-09,-1.15552E-07,0.0006688977,0.90633,5.0136,-7.3784,0.29519,0.00034579,-0.0047833
1726.1,-0.002658191,0.0019942,0.000660489,7.9147E-09,-1.15552E-07,0.0006688977,0.90633,5.0136,-7.3784,0.29519,0.00034579,-0.0047833
1726.1,-0.002658191,0.0019942,0.000660489,7.9147E-09,-1.15552E-07,0.0006688977,0.90633,5.0136,-7.3784,0.29519,0.00034579,-0.0047833
1726.2,-0.002658191,0.0019942,0.000660489,7.9147E-09,-1.15552E-07,0.0006688977,0.90633,5.0136,-7.3784,0.29519,0.00034579,-0.0047833
1726.2,-0.002658191,0.0019942,0.000660489,7.9147E-09,-1.15552E-07,0.0006688977,0.90633,5.0136,-7.3784,0.29519,0.00034579,-0.0047833
1726.3,-0.002658191,0.0019942,0.000660489,7.9147E-09,-1.15552E-07,0.0006688977,0.90633,5.0136,-7.3784,0.29519,0.00034579,-0.0047833
1726.4,-0.002658191,0.0019942,0.000660489,7.9147E-09,-1.15552E-07,0.0006688977,0.90633,5.0136,-7.3784,0.29519,0.00034579,-0.0047833
1726.4,-0.002658191,0.0019942,0.000660489,7.9147E-09,-1.15552E-07,0.0006688977,0.90633,5.0136,-7.3784,0.29519,0.00034579,-0.0047833
1726.5,-0.002658191,0.0019942,0.000660489,7.9147E-09,-1.15552E-07,0.0006688977,0.90633,5.0136,-7.3784,0.29519,0.00034579,-0.0047833
1726.5,-0.002658191,0.0019942,0.000660489,7.9147E-09,-1.15552E-07,0.0006688977,0.90633,5.0136,-7.3784,0.29519,0.00034579,-0.0047833
1726.6,-0.002658191,0.0019942,0.000660489,7.9147E-09,-1.15552E-07,0.0006688977,0.90633,5.0136,-7.3784,0.29519,0.00034579,-0.0047833
1726.7,-0.002658191,0.0019942,0.000660489,7.9147E-09,-1.15552E-07,0.0006688977,0.90633,5.0136,-7.3784,0.29519,0.00034579,-0.0047833
1726.7,-0.002658191,0.0019942,0.000660489,7.9147E-09,-1.15552E-07,0.0006688977,0.90633,5.0136,-7.3784,0.29519,0.00034579,-0.0047833
1726.8,-0.002658191,0.0019942,0.000660489,7.9147E-09,-1.15552E-07,0.0006688977,0.90633,5.0136,-7.3784,0.29519,0.00034579,-0.0047833
1726.8,-0.002658191,0.0019942,0.000660489,7.9147E-09,-1.15552E-07,0.0006688977,0.90633,5.0136,-7.3784,0.29519,0.00034579,-0.0047833
1726.9,-0.002658191,0.0019942,0.000660489,7.9147E-09,-1.15552E-07,0.0006688977,0.90633,5.0136,-7.3784,0.29519,0.00034579,-0.0047833
1727,-0.002658191,0.0019942,0.000660489,7.9147E-09,-1.15552E-07,0.0006688977,0.90633,5.0136,-7.3784,0.29519,0.00034579,-0.0047833
1727,-0.002688006,0.001991333,0.000660403,6.9166E-09,-1.03611E-07,0.0006727719,0.86698,-1.6648,-14.104,-0.18209,0.00033755,-0.0046726
1727.1,-0.002688006,0.001991333,0.000660403,6.9166E-09,-1.03611E-07,0.0006727719,0.86698,-1.6648,-14.104,-0.18209,0.00033755,-0.0046726
1727.1,-0.002688006,0.001991333,0.000660403,6.9166E-09,-1.03611E-07,0.0006727719,0.86698,-1.6648,-14.104,-0.18209,0.00033755,-0.0046726
1727.2,-0.002688006,0.001991333,0.000660403,6.9166E-09,-1.03611E-07,0.0006727719,0.86698,-1.6648,-14.104,-0.18209,0.00033755,-0.0046726
1727.3,-0.002688006,0.001991333,0.000660403,6.9166E-09,-1.03611E-07,0.0006727719,0.86698,-1.6648,-14.104,-0.18209,0.00033755,-0.0046726
1727.3,-0.002688006,0.001991333,0.000660403,6.9166E-09,-1.03611E-07,0.0006727719,0.86698,-1.6648,-14.104,-0.18209,0.00033755,-0.0046726
1727.4,-0.002688006,0.001991333,0.000660403,6.9166E-09,-1.03611E-07,0.0006727719,0.86698,-1.6648,-14.104,-0.18209,0.00033755,-0.0046726
1727.4,-0.002688006,0.001991333,0.000660403,6.9166E-09,-1.03611E-07,0.0006727719,0.86698,-1.6648,-14.104,-0.18209,0.00033755,-0.0046726
1727.5,-0.002688006,0.001991333,0.000660403,6.9166E-09,-1.03611E-07,0.0006727719,0.86698,-1.6648,-14.104,-0.18209,0.00033755,-0.0046726
1727.6,-0.002688006,0.001991333,0.000660403,6.9166E-09,-1.03611E-07,0.0006727719,0.86698,-1.6648,-14.104,-0.18209,0.00033755,-0.0046726
1727.6,-0.002688006,0.001991333,0.000660403,6.9166E-09,-1.03611E-07,0.0006727719,0.86698,-1.6648,-14.104,-0.18209,0.00033755,-0.0046726
1727.7,-0.002688006,0.001991333,0.000660403,6.9166E-09,-1.03611E-07,0.0006727719,0.86698,-1.6648,-14.104,-0.18209,0.00033755,-0.0046726
1727.7,-0.002688006,0.001991333,0.000660403,6.9166E-09,-1.03611E-07,0.0006727719,0.86698,-1.6648,-14.104,-0.18209,0.00033755,-0.0046726
1727.8,-0.002688006,0.001991333,0.000660403,6.9166E-09,-1.03611E-07,0.0006727719,0.86698,-1.6648,-14.104,-0.18209,0.00033755,-0.0046726
1727.9,-0.002688006,0.001991333,0.000660403,6.9166E-09,-1.03611E-07,0.0006727719,0.86698,-1.6648,-14.104,-0.18209,0.00033755,-0.0046726
1727.9,-0.002688006,0.001991333,0.000660403,6.9166E-09,-1.03611E-07,0.0006727719,0.86698,-1.6648,-14.104,-0.18209,0.00033755,-0.0046726
1728,-0.002688006,0.001991333,0.000660403,6.9166E-09,-1.03611E-07,0.0006727719,0.86698,-1.6648,-14.104,-0.18209,0.00033755,-0.0046726
1728,-0.002717754,0.001988399,0.00066033,0.000000006,-9.2212E-08,0.000676635,0.82379,-8.3394,-20.83,-0.65881,0.00032966,-0.004567
1728.1,-0.002717754,0.001988399,0.00066033,0.000000006,-9.2212E-08,0.000676635,0.82379,-8.3394,-20.83,-0.65881,0.00032966,-0.004567
1728.2,-0.002717754,0.001988399,0.00066033,0.000000006,-9.2212E-08,0.000676635,0.82379,-8.3394,-20.83,-0.65881,0.00032966,-0.004567
1728.2,-0.002717754,0.001988399,0.00066033,0.000000006,-9.2212E-08,0.000676635,0.82379,-8.3394,-20.83,-0.65881,0.00032966,-0.004567
1728.3,-0.002717754,0.001988399,0.00066033,0.000000006,-9.2212E-08,0.000676635,0.82379,-8.3394,-20.83,-0.65881,0.00032966,-0.004567
1728.3,-0.002717754,0.001988399,0.00066033,0.000000006,-9.2212E-08,0.000676635,0.82379,-8.3394,-20.83,-0.65881,0.00032966,-0.004567
1728.4,-0.002717754,0.001988399,0.00066033,0.000000006,-9.2212E-08,0.000676635,0.82379,-8.3394,-20.83,-0.65881,0.00032966,-0.004567
1728.5,-0.002717754,0.001988399,0.00066033,0.000000006,-9.2212E-08,0.000676635,0.82379,-8.3394,-20.83,-0.65881,0.00032966,-0.004567
1728.5,-0.002717754,0.001988399,0.00066033,0.000000006,-9.2212E-08,0.000676635,0.82379,-8.3394,-20.83,-0.65881,0.00032966,-0.004567
1728.6,-0.002717754,0.001988399,0.00066033,0.000000006,-9.2212E-08,0.000676635,0.82379,-8.3394,-20.83,-0.65881,0.00032966,-0.004567
1728.6,-0.002717754,0.001988399,0.00066033,0.000000006,-9.2212E-08,0.000676635,0.82379,-8.3394,-20.83,-0.65881,0.00032966,-0.004567
1728.7,-0.002717754,0.001988399,0.00066033,0.000000006,-9.2212E-08,0.000676635,0.82379,-8.3394,-20.83,-0.65881,0.00032966,-0.004567
1728.8,-0.002717754,0.001988399,0.00066033,0.000000006,-9.2212E-08,0.000676635,0.82379,-8.3394,-20.83,-0.65881,0.00032966,-0.004567
1728.8,-0.002717754,0.001988399,0.00066033,0.000000006,-9.2212E-08,0.000676635,0.82379,-8.3394,-20.83,-0.65881,0.00032966,-0.004567
1728.9,-0.002717754,0.001988399,0.00066033,0.000000006,-9.2212E-08,0.000676635,0.82379,-8.3394,-20.83,-0.65881,0.00032966,-0.004567
1728.9,-0.002717754,0.001988399,0.00066033,0.000000006,-9.2212E-08,0.000676635,0.82379,-8.3394,-20.83,-0.65881,0.00032966,-0.004567
1729,-0.002747533,0.001985496,0.00066024,0.000000005,-8.13114E-08,0.000680488,0.77676,-15.01,-27.556,-1.135,0.00032215,-0.0044665
1729.1,-0.002747533,0.001985496,0.00066024,0.000000005,-8.13114E-08,0.000680488,0.77676,-15.01,-27.556,-1.135,0.00032215,-0.0044665
1729.1,-0.002747533,0.001985496,0.00066024,0.000000005,-8.13114E-08,0.000680488,0.77676,-15.01,-27.556,-1.135,0.00032215,-0.0044665
1729.2,-0.002747533,0.001985496,0.00066024,0.000000005,-8.13114E-08,0.000680488,0.77676,-15.01,-27.556,-1.135,0.00032215,-0.0044665
1729.2,-0.002747533,0.001985496,0.00066024,0.000000005,-8.13114E-08,0.000680488,0.77676,-15.01,-27.556,-1.135,0.00032215,-0.0044665
1729.3,-0.002747533,0.001985496,0.00066024,0.000000005,-8.13114E-08,0.000680488,0.77676,-15.01,-27.556,-1.135,0.00032215,-0.0044665
1729.4,-0.002747533,0.001985496,0.00066024,0.000000005,-8.13114E-08,0.000680488,0.77676,-15.01,-27.556,-1.135,0.00032215,-0.0044665
1729.4,-0.002747533,0.001985496,0.00066024,0.000000005,-8.13114E-08,0.000680488,0.77676,-15.01,-27.556,-1.135,0.00032215,-0.0044665
1729.5,-0.002747533,0.001985496,0.00066024,0.000000005,-8.13114E-08,0.000680488,0.77676,-15.01,-27.556,-1.135,0.00032215,-0.0044665
1729.5,-0.002747533,0.001985496,0.00066024,0.000000005,-8.13114E-08,0.000680488,0.77676,-15.01,-27.556,-1.135,0.00032215,-0.0044665
1729.6,-0.002747533,0.001985496,0.00066024,0.000000005,-8.13114E-08,0.000680488,0.77676,-15.01,-27.556,-1.135,0.00032215,-0.0044665
1729.7,-0.002747533,0.001985496,0.00066024,0.000000005,-8.13114E-08,0.000680488,0.77676,-15.01,-27.556,-1.135,0.00032215,-0.0044665
1729.7,-0.002747533,0.001985496,0.00066024,0.000000005,-8.13114E-08,0.000680488,0.77676,-15.01,-27.556,-1.135,0.00032215,-0.0044665
1729.8,-0.002747533,0.001985496,0.00066024,0.000000005,-8.13114E-08,0.000680488,0.77676,-15.01,-27.556,-1.135,0.00032215,-0.0044665
1729.8,-0.002747533,0.001985496,0.00066024,0.000000005,-8.13114E-08,0.000680488,0.77676,-15.01,-27.556,-1.135,0.00032215,-0.0044665
1729.9,-0.002747533,0.001985496,0.00066024,0.000000005,-8.13114E-08,0.000680488,0.77676,-15.01,-27.556,-1.135,0.00032215,-0.0044665
1730,-0.002747533,0.001985496,0.00066024,0.000000005,-8.13114E-08,0.000680488,0.77676,-15.01,-27.556,-1.135,0.00032215,-0.0044665
1730,-0.00277725,0.001982525,0.00066016,3.8339E-09,-6.63804E-08,0.00068435,0.72611,-21.677,-34.282,-1.6106,0.00031551,-0.0043783
1730.1,-0.00277725,0.001982525,0.00066016,3.8339E-09,-6.63804E-08,0.00068435,0.72611,-21.677,-34.282,-1.6106,0.00031551,-0.0043783
1730.1,-0.00277725,0.001982525,0.00066016,3.8339E-09,-6.63804E-08,0.00068435,0.72611,-21.677,-34.282,-1.6106,0.00031551,-0.0043783
1730.2,-0.00277725,0.001982525,0.00066016,3.8339E-09,-6.63804E-08,0.00068435,0.72611,-21.677,-34.282,-1.6106,0.00031551,-0.0043783
1730.3,-0.00277725,0.001982525,0.00066016,3.8339E-09,-6.63804E-08,0.00068435,0.72611,-21.677,-34.282,-1.6106,0.00031551,-0.0043783
1730.3,-0.00277725,0.001982525,0.00066016,3.8339E-09,-6.63804E-08,0.00068435,0.72611,-21.677,-34.282,-1.6106,0.00031551,-0.0043783
1730.4,-0.00277725,0.001982525,0.00066016,3.8339E-09,-6.63804E-08,0.00068435,0.72611,-21.677,-34.282,-1.6106,0.00031551,-0.0043783
1730.4,-0.00277725,0.001982525,0.00066016,3.8339E-09,-6.63804E-08,0.00068435,0.72611,-21.677,-34.282,-1.6106,0.00031551,-0.0043783
1730.5,-0.00277725,0.001982525,0.00066016,3.8339E-09,-6.63804E-08,0.00068435,0.72611,-21.677,-34.282,-1.6106,0.00031551,-0.0043783
1730.6,-0.00277725,0.001982525,0.00066016,3.8339E-09,-6.63804E-08,0.00068435,0.72611,-21.677,-34.282,-1.6106,0.00031551,-0.0043783
1730.6,-0.00277725,0.001982525,0.00066016,3.8339E-09,-6.63804E-08,0.00068435,0.72611,-21.677,-34.282,-1.6106,0.00031551,-0.0043783
1730.7,-0.00277725,0.001982525,0.00066016,3.8339E-09,-6.63804E-08,0.00068435,0.72611,-21.677,-34.282,-1.6106,0.00031551,-0.0043783
1730.7,-0.00277725,0.001982525,0.00066016,3.8339E-09,-6.63804E-08,0.00068435,0.72611,-21.677,-34.282,-1.6106,0.00031551,-0.0043783
1730.8,-0.00277725,0.001982525,0.00066016,3.8339E-09,-6.63804E-08,0.00068435,0.72611,-21.677,-34.282,-1.6106,0.00031551,-0.0043783
1730.9,-0.00277725,0.001982525,0.00066016,3.8339E-09,-6.63804E-08,0.00068435,0.72611,-21.677,-34.282,-1.6106,0.00031551,-0.0043783
1730.9,-0.00277725,0.001982525,0.00066016,3.8339E-09,-6.63804E-08,0.00068435,0.72611,-21.677,-34.282,-1.6106,0.00031551,-0.0043783
1731,-0.00277725,0.001982525,0.00066016,3.8339E-09,-6.63804E-08,0.00068435,0.72611,-21.677,-34.282,-1.6106,0.00031551,-0.0043783
1731,-0.00280699,0.00197958,0.00066008,1.8758E-09,-4.0877E-08,0.000688201,0.67152,-28.34,-41.006,-2.0857,0.00031018,-0.0043088
1731.1,-0.00280699,0.00197958,0.00066008,1.8758E-09,-4.0877E-08,0.000688201,0.67152,-28.34,-41.006,-2.0857,0.00031018,-0.0043088
1731.2,-0.00280699,0.00197958,0.00066008,1.8758E-09,-4.0877E-08,0.000688201,0.67152,-28.34,-41.006,-2.0857,0.00031018,-0.0043088
1731.2,-0.00280699,0.00197958,0.00066008,1.8758E-09,-4.0877E-08,0.000688201,0.67152,-28.34,-41.006,-2.0857,0.00031018,-0.0043088
1731.3,-0.00280699,0.00197958,0.00066008,1.8758E-09,-4.0877E-08,0.000688201,0.67152,-28.34,-41.006,-2.0857,0.00031018,-0.0043088
1731.3,-0.00280699,0.00197958,0.00066008,1.8758E-09,-4.0877E-08,0.000688201,0.67152,-28.34,-41.006,-2.0857,0.00031018,-0.0043088
1731.4,-0.00280699,0.00197958,0.00066008,1.8758E-09,-4.0877E-08,0.000688201,0.67152,-28.34,-41.006,-2.0857,0.00031018,-0.0043088
1731.5,-0.00280699,0.00197958,0.00066008,1.8758E-09,-4.0877E-08,0.000688201,0.67152,-28.34,-41.006,-2.0857,0.00031018,-0.0043088
1731.5,-0.00280699,0.00197958,0.00066008,1.8758E-09,-4.0877E-08,0.000688201,0.67152,-28.34,-41.006,-2.0857,0.00031018,-0.0043088
1731.6,-0.00280699,0.00197958,0.00066008,1.8758E-09,-4.0877E-08,0.000688201,0.67152,-28.34,-41.006,-2.0857,0.00031018,-0.0043088
1731.6,-0.00280699,0.00197958,0.00066008,1.8758E-09,-4.0877E-08,0.000688201,0.67152,-28.34,-41.006,-2.0857,0.00031018,-0.0043088
1731.7,-0.00280699,0.00197958,0.00066008,1.8758E-09,-4.0877E-08,0.000688201,0.67152,-28.34,-41.006,-2.0857,0.00031018,-0.0043088
1731.8,-0.00280699,0.00197958,0.00066008,1.8758E-09,-4.0877E-08,0.000688201,0.67152,-28.34,-41.006,-2.0857,0.00031018,-0.0043088
1731.8,-0.00280699,0.00197958,0.00066008,1.8758E-09,-4.0877E-08,0.000688201,0.67152,-28.34,-41.006,-2.0857,0.00031018,-0.0043088
1731.9,-0.00280699,0.00197958,0.00066008,1.8758E-09,-4.0877E-08,0.000688201,0.67152,-28.34,-41.006,-2.0857,0.00031018,-0.0043088
1731.9,-0.00280699,0.00197958,0.00066008,1.8758E-09,-4.0877E-08,0.000688201,0.67152,-28.34,-41.006,-2.0857,0.00031018,-0.0043088
1732,-0.00283668,0.00197667,0.00066,5.97E-10,-2.54E-08,0.000692041,0.61269,-35,-47.729,-2.5602,0.00030425,-0.0042326
1732.1,-0.00283668,0.00197667,0.00066,5.97E-10,-2.54E-08,0.000692041,0.61269,-35,-47.729,-2.5602,0.00030425,-0.0042326
1732.1,-0.00283668,0.00197667,0.00066,5.97E-10,-2.54E-08,0.000692041,0.61269,-35,-47.729,-2.5602,0.00030425,-0.0042326
1732.2,-0.00283668,0.00197667,0.00066,5.97E-10,-2.54E-08,0.000692041,0.61269,-35,-47.729,-2.5602,0.00030425,-0.0042326
1732.2,-0.00283668,0.00197667,0.00066,5.97E-10,-2.54E-08,0.000692041,0.61269,-35,-47.729,-2.5602,0.00030425,-0.0042326
1732.3,-0.00283668,0.00197667,0.00066,5.97E-10,-2.54E-08,0.000692041,0.61269,-35,-47.729,-2.5602,0.00030425,-0.0042326
1732.4,-0.00283668,0.00197667,0.00066,5.97E-10,-2.54E-08,0.000692041,0.61269,-35,-47.729,-2.5602,0.00030425,-0.0042326
1732.4,-0.00283668,0.00197667,0.00066,5.97E-10,-2.54E-08,0.000692041,0.61269,-35,-47.729,-2.5602,0.00030425,-0.0042326
1732.5,-0.00283668,0.00197667,0.00066,5.97E-10,-2.54E-08,0.000692041,0.61269,-35,-47.729,-2.5602,0.00030425,-0.0042326
1732.5,-0.00283668,0.00197667,0.00066,5.97E-10,-2.54E-08,0.000692041,0.61269,-35,-47.729,-2.5602,0.00030425,-0.0042326
1732.6,-0.00283668,0.00197667,0.00066,5.97E-10,-2.54E-08,0.000692041,0.61269,-35,-47.729,-2.5602,0.00030425,-0.0042326
1732.7,-0.00283668,0.00197667,0.00066,5.97E-10,-2.54E-08,0.000692041,0.61269,-35,-47.729,-2.5602,0.00030425,-0.0042326
1732.7,-0.00283668,0.00197667,0.00066,5.97E-10,-2.54E-08,0.000692041,0.61269,-35,-47.729,-2.5602,0.00030425,-0.0042326
1732.8,-0.00283668,0.00197667,0.00066,5.97E-10,-2.54E-08,0.000692041,0.61269,-35,-47.729,-2.5602,0.00030425,-0.0042326
1732.8,-0.00283668,0.00197667,0.00066,5.97E-10,-2.54E-08,0.000692041,0.61269,-35,-47.729,-2.5602,0.00030425,-0.0042326
1732.9,-0.00283668,0.00197667,0.00066,5.97E-10,-2.54E-08,0.000692041,0.61269,-35,-47.729,-2.5602,0.00030425,-0.0042326
1733,-0.00283668,0.00197667,0.00066,5.97E-10,-2.54E-08,0.000692041,0.61269,-35,-47.729,-2.5602,0.00030425,-0.0042326
1733,-0.0028664,0.00197369,0.00065991,5.349E-10,-2.7729E-08,0.000695882,0.55046,-41.655,-54.448,-3.0342,0.00029705,-0.0041393
1733.1,-0.0028664,0.00197369,0.00065991,5.349E-10,-2.7729E-08,0.000695882,0.55046,-41.655,-54.448,-3.0342,0.00029705,-0.0041393
1733.1,-0.0028664,0.00197369,0.00065991,5.349E-10,-2.7729E-08,0.000695882,0.55046,-41.655,-54.448,-3.0342,0.00029705,-0.0041393
1733.2,-0.0028664,0.00197369,0.00065991,5.349E-10,-2.7729E-08,0.000695882,0.55046,-41.655,-54.448,-3.0342,0.00029705,-0.0041393
1733.3,-0.0028664,0.00197369,0.00065991,5.349E-10,-2.7729E-08,0.000695882,0.55046,-41.655,-54.448,-3.0342,0.00029705,-0.0041393
1733.3,-0.0028664,0.00197369,0.00065991,5.349E-10,-2.7729E-08,0.000695882,0.55046,-41.655,-54.448,-3.0342,0.00029705,-0.0041393
1733.4,-0.0028664,0.00197369,0.00065991,5.349E-10,-2.7729E-08,0.000695882,0.55046,-41.655,-54.448,-3.0342,0.00029705,-0.0041393
1733.4,-0.0028664,0.00197369,0.00065991,5.349E-10,-2.7729E-08,0.000695882,0.55046,-41.655,-54.448,-3.0342,0.00029705,-0.0041393
1733.5,-0.0028664,0.00197369,0.00065991,5.349E-10,-2.7729E-08,0.000695882,0.55046,-41.655,-54.448,-3.0342,0.00029705,-0.0041393
1733.6,-0.0028664,0.00197369,0.00065991,5.349E-10,-2.7729E-08,0.000695882,0.55046,-41.655,-54.448,-3.0342,0.00029705,-0.0041393
1733.6,-0.0028664,0.00197369,0.00065991,5.349E-10,-2.7729E-08,0.000695882,0.55046,-41.655,-54.448,-3.0342,0.00029705,-0.0041393
1733.7,-0.0028664,0.00197369,0.00065991,5.349E-10,-2.7729E-08,0.000695882,0.55046,-41.655,-54.448,-3.0342,0.00029705,-0.0041393
1733.7,-0.0028664,0.00197369,0.00065991,5.349E-10,-2.7729E-08,0.000695882,0.55046,-41.655,-54.448,-3.0342,0.00029705,-0.0041393
1733.8,-0.0028664,0.00197369,0.00065991,5.349E-10,-2.7729E-08,0.000695882,0.55046,-41.655,-54.448,-3.0342,0.00029705,-0.0041393
1733.9,-0.0028664,0.00197369,0.00065991,5.349E-10,-2.7729E-08,0.000695882,0.55046,-41.655,-54.448,-3.0342,0.00029705,-0.0041393
1733.9,-0.0028664,0.00197369,0.00065991,5.349E-10,-2.7729E-08,0.000695882,0.55046,-41.655,-54.448,-3.0342,0.00029705,-0.0041393
1734,-0.0028664,0.00197369,0.00065991,5.349E-10,-2.7729E-08,0.000695882,0.55046,-41.655,-54.448,-3.0342,0.00029705,-0.0041393
1734,-0.00289597,0.00197073,0.00065983,5.83E-10,-3.1783E-08,0.000699713,0.48444,-48.304,-61.161,-3.5075,0.00029037,-0.0040524
1734.1,-0.00289597,0.00197073,0.00065983,5.83E-10,-3.1783E-08,0.000699713,0.48444,-48.304,-61.161,-3.5075,0.00029037,-0.0040524
1734.2,-0.00289597,0.00197073,0.00065983,5.83E-10,-3.1783E-08,0.000699713,0.48444,-48.304,-61.161,-3.5075,0.00029037,-0.0040524
1734.2,-0.00289597,0.00197073,0.00065983,5.83E-10,-3.1783E-08,0.000699713,0.48444,-48.304,-61.161,-3.5075,0.00029037,-0.0040524
1734.3,-0.00289597,0.00197073,0.00065983,5.83E-10,-3.1783E-08,0.000699713,0.48444,-48.304,-61.161,-3.5075,0.00029037,-0.0040524
1734.3,-0.00289597,0.00197073,0.00065983,5.83E-10,-3.1783E-08,0.000699713,0.48444,-48.304,-61.161,-3.5075,0.00029037,-0.0040524
1734.4,-0.00289597,0.00197073,0.00065983,5.83E-10,-3.1783E-08,0.000699713,0.48444,-48.304,-61.161,-3.5075,0.00029037,-0.0040524
1734.5,-0.00289597,0.00197073,0.00065983,5.83E-10,-3.1783E-08,0.000699713,0.48444,-48.304,-61.161,-3.5075,0.00029037,-0.0040524
1734.5,-0.00289597,0.00197073,0.00065983,5.83E-10,-3.1783E-08,0.000699713,0.48444,-48.304,-61.161,-3.5075,0.00029037,-0.0040524
1734.6,-0.00289597,0.00197073,0.00065983,5.83E-10,-3.1783E-08,0.000699713,0.48444,-48.304,-61.161,-3.5075,0.00029037,-0.0040524
1734.6,-0.00289597,0.00197073,0.00065983,5.83E-10,-3.1783E-08,0.000699713,0.48444,-48.304,-61.161,-3.5075,0.00029037,-0.0040524
1734.7,-0.00289597,0.00197073,0.00065983,5.83E-10,-3.1783E-08,0.000699713,0.48444,-48.304,-61.161,-3.5075,0.00029037,-0.0040524
1734.8,-0.00289597,0.00197073,0.00065983,5.83E-10,-3.1783E-08,0.000699713,0.48444,-48.304,-61.161,-3.5075,0.00029037,-0.0040524
1734.8,-0.00289597,0.00197073,0.00065983,5.83E-10,-3.1783E-08,0.000699713,0.48444,-48.304,-61.161,-3.5075,0.00029037,-0.0040524
1734.9,-0.00289597,0.00197073,0.00065983,5.83E-10,-3.1783E-08,0.000699713,0.48444,-48.304,-61.161,-3.5075,0.00029037,-0.0040524
1734.9,-0.00289597,0.00197073,0.00065983,5.83E-10,-3.1783E-08,0.000699713,0.48444,-48.304,-61.161,-3.5075,0.00029037,-0.0040524
1735,-0.00289597,0.00197073,0.00065983,5.83E-10,-3.1783E-08,0.000699713,0.48444,-48.304,-61.161,-3.5075,0.00029037,-0.0040524
1735.1,-0.0029256,0.0019677,0.00065975,7.431E-10,-3.7265E-08,0.000703545,0.41466,-54.948,-67.863,-3.9801,0.00028413,-0.0039712
1735.1,-0.0029256,0.0019677,0.00065975,7.431E-10,-3.7265E-08,0.000703545,0.41466,-54.948,-67.863,-3.9801,0.00028413,-0.0039712
1735.2,-0.0029256,0.0019677,0.00065975,7.431E-10,-3.7265E-08,0.000703545,0.41466,-54.948,-67.863,-3.9801,0.00028413,-0.0039712
1735.2,-0.0029256,0.0019677,0.00065975,7.431E-10,-3.7265E-08,0.000703545,0.41466,-54.948,-67.863,-3.9801,0.00028413,-0.0039712
1735.3,-0.0029256,0.0019677,0.00065975,7.431E-10,-3.7265E-08,0.000703545,0.41466,-54.948,-67.863,-3.9801,0.00028413,-0.0039712
1735.4,-0.0029256,0.0019677,0.00065975,7.431E-10,-3.7265E-08,0.000703545,0.41466,-54.948,-67.863,-3.9801,0.00028413,-0.0039712
1735.4,-0.0029256,0.0019677,0.00065975,7.431E-10,-3.7265E-08,0.000703545,0.41466,-54.948,-67.863,-3.9801,0.00028413,-0.0039712
1735.5,-0.0029256,0.0019677,0.00065975,7.431E-10,-3.7265E-08,0.000703545,0.41466,-54.948,-67.863,-3.9801,0.00028413,-0.0039712
1735.5,-0.0029256,0.0019677,0.00065975,7.431E-10,-3.7265E-08,0.000703545,0.41466,-54.948,-67.863,-3.9801,0.00028413,-0.0039712
1735.6,-0.0029256,0.0019677,0.00065975,7.431E-10,-3.7265E-08,0.000703545,0.41466,-54.948,-67.863,-3.9801,0.00028413,-0.0039712
1735.7,-0.0029256,0.0019677,0.00065975,7.431E-10,-3.7265E-08,0.000703545,0.41466,-54.948,-67.863,-3.9801,0.00028413,-0.0039712
1735.7,-0.0029256,0.0019677,0.00065975,7.431E-10,-3.7265E-08,0.000703545,0.41466,-54.948,-67.863,-3.9801,0.00028413,-0.0039712
1735.8,-0.0029256,0.0019677,0.00065975,7.431E-10,-3.7265E-08,0.000703545,0.41466,-54.948,-67.863,-3.9801,0.00028413,-0.0039712
1735.8,-0.0029256,0.0019677,0.00065975,7.431E-10,-3.7265E-08,0.000703545,0.41466,-54.948,-67.863,-3.9801,0.00028413,-0.0039712
1735.9,-0.0029256,0.0019677,0.00065975,7.431E-10,-3.7265E-08,0.000703545,0.41466,-54.948,-67.863,-3.9801,0.00028413,-0.0039712
1736,-0.0029256,0.0019677,0.00065975,7.431E-10,-3.7265E-08,0.000703545,0.41466,-54.948,-67.863,-3.9801,0.00028413,-0.0039712
1736,-0.00295519,0.00196469,0.00065963,1.0512E-09,-4.4686E-08,0.000707361,0.34114,-61.585,-74.548,-4.4519,0.00027831,-0.0038954
1736.1,-0.00295519,0.00196469,0.00065963,1.0512E-09,-4.4686E-08,0.000707361,0.34114,-61.585,-74.548,-4.4519,0.00027831,-0.0038954
1736.1,-0.00295519,0.00196469,0.00065963,1.0512E-09,-4.4686E-08,0.000707361,0.34114,-61.585,-74.548,-4.4519,0.00027831,-0.0038954
1736.2,-0.00295519,0.00196469,0.00065963,1.0512E-09,-4.4686E-08,0.000707361,0.34114,-61.585,-74.548,-4.4519,0.00027831,-0.0038954
1736.3,-0.00295519,0.00196469,0.00065963,1.0512E-09,-4.4686E-08,0.000707361,0.34114,-61.585,-74.548,-4.4519,0.00027831,-0.0038954
1736.3,-0.00295519,0.00196469,0.00065963,1.0512E-09,-4.4686E-08,0.000707361,0.34114,-61.585,-74.548,-4.4519,0.00027831,-0.0038954
1736.4,-0.00295519,0.00196469,0.00065963,1.0512E-09,-4.4686E-08,0.000707361,0.34114,-61.585,-74.548,-4.4519,0.00027831,-0.0038954
1736.4,-0.00295519,0.00196469,0.00065963,1.0512E-09,-4.4686E-08,0.000707361,0.34114,-61.585,-74.548,-4.4519,0.00027831,-0.0038954
1736.5,-0.00295519,0.00196469,0.00065963,1.0512E-09,-4.4686E-08,0.000707361,0.34114,-61.585,-74.548,-4.4519,0.00027831,-0.0038954
1736.6,-0.00295519,0.00196469,0.00065963,1.0512E-09,-4.4686E-08,0.000707361,0.34114,-61.585,-74.548,-4.4519,0.00027831,-0.0038954
1736.6,-0.00295519,0.00196469,0.00065963,1.0512E-09,-4.4686E-08,0.000707361,0.34114,-61.585,-74.548,-4.4519,0.00027831,-0.0038954
1736.7,-0.00295519,0.00196469,0.00065963,1.0512E-09,-4.4686E-08,0.000707361,0.34114,-61.585,-74.548,-4.4519,0.00027831,-0.0038954
1736.7,-0.00295519,0.00196469,0.00065963,1.0512E-09,-4.4686E-08,0.000707361,0.34114,-61.585,-74.548,-4.4519,0.00027831,-0.0038954
1736.8,-0.00295519,0.00196469,0.00065963,1.0512E-09,-4.4686E-08,0.000707361,0.34114,-61.585,-74.548,-4.4519,0.00027831,-0.0038954
1736.9,-0.00295519,0.00196469,0.00065963,1.0512E-09,-4.4686E-08,0.000707361,0.34114,-61.585,-74.548,-4.4519,0.00027831,-0.0038954
1736.9,-0.00295519,0.00196469,0.00065963,1.0512E-09,-4.4686E-08,0.000707361,0.34114,-61.585,-74.548,-4.4519,0.00027831,-0.0038954
1737,-0.00295519,0.00196469,0.00065963,1.0512E-09,-4.4686E-08,0.000707361,0.34114,-61.585,-74.548,-4.4519,0.00027831,-0.0038954
1737,-0.00298458,0.0019617,0.00065955,1.4868E-09,-5.3747E-08,0.000711163,0.2639,-68.212,-81.21,-4.9227,0.00027289,-0.0038249
1737.1,-0.00298458,0.0019617,0.00065955,1.4868E-09,-5.3747E-08,0.000711163,0.2639,-68.212,-81.21,-4.9227,0.00027289,-0.0038249
1737.2,-0.00298458,0.0019617,0.00065955,1.4868E-09,-5.3747E-08,0.000711163,0.2639,-68.212,-81.21,-4.9227,0.00027289,-0.0038249
1737.2,-0.00298458,0.0019617,0.00065955,1.4868E-09,-5.3747E-08,0.000711163,0.2639,-68.212,-81.21,-4.9227,0.00027289,-0.0038249
1737.3,-0.00298458,0.0019617,0.00065955,1.4868E-09,-5.3747E-08,0.000711163,0.2639,-68.212,-81.21,-4.9227,0.00027289,-0.0038249
1737.3,-0.00298458,0.0019617,0.00065955,1.4868E-09,-5.3747E-08,0.000711163,0.2639,-68.212,-81.21,-4.9227,0.00027289,-0.0038249
1737.4,-0.00298458,0.0019617,0.00065955,1.4868E-09,-5.3747E-08,0.000711163,0.2639,-68.212,-81.21,-4.9227,0.00027289,-0.0038249
1737.5,-0.00298458,0.0019617,0.00065955,1.4868E-09,-5.3747E-08,0.000711163,0.2639,-68.212,-81.21,-4.9227,0.00027289,-0.0038249
1737.5,-0.00298458,0.0019617,0.00065955,1.4868E-09,-5.3747E-08,0.000711163,0.2639,-68.212,-81.21,-4.9227,0.00027289,-0.0038249
1737.6,-0.00298458,0.0019617,0.00065955,1.4868E-09,-5.3747E-08,0.000711163,0.2639,-68.212,-81.21,-4.9227,0.00027289,-0.0038249
1737.6,-0.00298458,0.0019617,0.00065955,1.4868E-09,-5.3747E-08,0.000711163,0.2639,-68.212,-81.21,-4.9227,0.00027289,-0.0038249
1737.7,-0.00298458,0.0019617,0.00065955,1.4868E-09,-5.3747E-08,0.000711163,0.2639,-68.212,-81.21,-4.9227,0.00027289,-0.0038249
1737.8,-0.00298458,0.0019617,0.00065955,1.4868E-09,-5.3747E-08,0.000711163,0.2639,-68.212,-81.21,-4.9227,0.00027289,-0.0038249
1737.8,-0.00298458,0.0019617,0.00065955,1.4868E-09,-5.3747E-08,0.000711163,0.2639,-68.212,-81.21,-4.9227,0.00027289,-0.0038249
1737.9,-0.00298458,0.0019617,0.00065955,1.4868E-09,-5.3747E-08,0.000711163,0.2639,-68.212,-81.21,-4.9227,0.00027289,-0.0038249
1737.9,-0.00298458,0.0019617,0.00065955,1.4868E-09,-5.3747E-08,0.000711163,0.2639,-68.212,-81.21,-4.9227,0.00027289,-0.0038249
1738,-0.00298458,0.0019617,0.00065955,1.4868E-09,-5.3747E-08,0.000711163,0.2639,-68.212,-81.21,-4.9227,0.00027289,-0.0038249
1738.1,-0.00301398,0.00195863,0.00065946,2.0591E-09,-6.45714E-08,0.000714944,0.18297,-74.827,-87.839,-5.3925,0.00026787,-0.0037595
1738.1,-0.00301398,0.00195863,0.00065946,2.0591E-09,-6.45714E-08,0.000714944,0.18297,-74.827,-87.839,-5.3925,0.00026787,-0.0037595
1738.2,-0.00301398,0.00195863,0.00065946,2.0591E-09,-6.45714E-08,0.000714944,0.18297,-74.827,-87.839,-5.3925,0.00026787,-0.0037595
1738.2,-0.00301398,0.00195863,0.00065946,2.0591E-09,-6.45714E-08,0.000714944,0.18297,-74.827,-87.839,-5.3925,0.00026787,-0.0037595
1738.3,-0.00301398,0.00195863,0.00065946,2.0591E-09,-6.45714E-08,0.000714944,0.18297,-74.827,-87.839,-5.3925,0.00026787,-0.0037595
1738.4,-0.00301398,0.00195863,0.00065946,2.0591E-09,-6.45714E-08,0.000714944,0.18297,-74.827,-87.839,-5.3925,0.00026787,-0.0037595
1738.4,-0.00301398,0.00195863,0.00065946,2.0591E-09,-6.45714E-08,0.000714944,0.18297,-74.827,-87.839,-5.3925,0.00026787,-0.0037595
1738.5,-0.00301398,0.00195863,0.00065946,2.0591E-09,-6.45714E-08,0.000714944,0.18297,-74.827,-87.839,-5.3925,0.00026787,-0.0037595
1738.5,-0.00301398,0.00195863,0.00065946,2.0591E-09,-6.45714E-08,0.000714944,0.18297,-74.827,-87.839,-5.3925,0.00026787,-0.0037595
1738.6,-0.00301398,0.00195863,0.00065946,2.0591E-09,-6.45714E-08,0.000714944,0.18297,-74.827,-87.839,-5.3925,0.00026787,-0.0037595
1738.7,-0.00301398,0.00195863,0.00065946,2.0591E-09,-6.45714E-08,0.000714944,0.18297,-74.827,-87.839,-5.3925,0.00026787,-0.0037595
1738.7,-0.00301398,0.00195863,0.00065946,2.0591E-09,-6.45714E-08,0.000714944,0.18297,-74.827,-87.839,-5.3925,0.00026787,-0.0037595
1738.8,-0.00301398,0.00195863,0.00065946,2.0591E-09,-6.45714E-08,0.000714944,0.18297,-74.827,-87.839,-5.3925,0.00026787,-0.0037595
1738.8,-0.00301398,0.00195863,0.00065946,2.0591E-09,-6.45714E-08,0.000714944,0.18297,-74.827,-87.839,-5.3925,0.00026787,-0.0037595
1738.9,-0.00301398,0.00195863,0.00065946,2.0591E-09,-6.45714E-08,0.000714944,0.18297,-74.827,-87.839,-5.3925,0.00026787,-0.0037595
1739,-0.00301398,0.00195863,0.00065946,2.0591E-09,-6.45714E-08,0.000714944,0.18297,-74.827,-87.839,-5.3925,0.00026787,-0.0037595
1739,-0.00304313,0.00195557,0.00065944,2.8191E-09,-7.7839E-08,0.000718697,0.098385,-81.427,-94.422,-5.8609,0.00026322,-0.0036988
1739.1,-0.00304313,0.00195557,0.00065944,2.8191E-09,-7.7839E-08,0.000718697,0.098385,-81.427,-94.422,-5.8609,0.00026322,-0.0036988
1739.1,-0.00304313,0.00195557,0.00065944,2.8191E-09,-7.7839E-08,0.000718697,0.098385,-81.427,-94.422,-5.8609,0.00026322,-0.0036988
1739.2,-0.00304313,0.00195557,0.00065944,2.8191E-09,-7.7839E-08,0.000718697,0.098385,-81.427,-94.422,-5.8609,0.00026322,-0.0036988
1739.3,-0.00304313,0.00195557,0.00065944,2.8191E-09,-7.7839E-08,0.000718697,0.098385,-81.427,-94.422,-5.8609,0.00026322,-0.0036988
1739.3,-0.00304313,0.00195557,0.00065944,2.8191E-09,-7.7839E-08,0.000718697,0.098385,-81.427,-94.422,-5.8609,0.00026322,-0.0036988
1739.4,-0.00304313,0.00195557,0.00065944,2.8191E-09,-7.7839E-08,0.000718697,0.098385,-81.427,-94.422,-5.8609,0.00026322,-0.0036988
1739.4,-0.00304313,0.00195557,0.00065944,2.8191E-09,-7.7839E-08,0.000718697,0.098385,-81.427,-94.422,-5.8609,0.00026322,-0.0036988
1739.5,-0.00304313,0.00195557,0.00065944,2.8191E-09,-7.7839E-08,0.000718697,0.098385,-81.427,-94.422,-5.8609,0.00026322,-0.0036988
1739.6,-0.00304313,0.00195557,0.00065944,2.8191E-09,-7.7839E-08,0.000718697,0.098385,-81.427,-94.422,-5.8609,0.00026322,-0.0036988
1739.6,-0.00304313,0.00195557,0.00065944,2.8191E-09,-7.7839E-08,0.000718697,0.098385,-81.427,-94.422,-5.8609,0.00026322,-0.0036988
1739.7,-0.00304313,0.00195557,0.00065944,2.8191E-09,-7.7839E-08,0.000718697,0.098385,-81.427,-94.422,-5.8609,0.00026322,-0.0036988
1739.7,-0.00304313,0.00195557,0.00065944,2.8191E-09,-7.7839E-08,0.000718697,0.098385,-81.427,-94.422,-5.8609,0.00026322,-0.0036988
1739.8,-0.00304313,0.00195557,0.00065944,2.8191E-09,-7.7839E-08,0.000718697,0.098385,-81.427,-94.422,-5.8609,0.00026322,-0.0036988
1739.9,-0.00304313,0.00195557,0.00065944,2.8191E-09,-7.7839E-08,0.000718697,0.098385,-81.427,-94.422,-5.8609,0.00026322,-0.0036988
1739.9,-0.00304313,0.00195557,0.00065944,2.8191E-09,-7.7839E-08,0.000718697,0.098385,-81.427,-94.422,-5.8609,0.00026322,-0.0036988
1740,-0.00304313,0.00195557,0.00065944,2.8191E-09,-7.7839E-08,0.000718697,0.098385,-81.427,-94.422,-5.8609,0.00026322,-0.0036988
1740,-0.00307215,0.00195253,0.00065937,3.77156E-09,-9.3351E-08,0.00072243,0.010988,-88.007,-100.95,-6.3276,0.00026132,-0.003672
1740.1,-0.00307215,0.00195253,0.00065937,3.77156E-09,-9.3351E-08,0.00072243,0.010988,-88.007,-100.95,-6.3276,0.00026132,-0.003672
1740.2,-0.00307215,0.00195253,0.00065937,3.77156E-09,-9.3351E-08,0.00072243,0.010988,-88.007,-100.95,-6.3276,0.00026132,-0.003672
1740.2,-0.00307215,0.00195253,0.00065937,3.77156E-09,-9.3351E-08,0.00072243,0.010988,-88.007,-100.95,-6.3276,0.00026132,-0.003672
1740.3,-0.00307215,0.00195253,0.00065937,3.77156E-09,-9.3351E-08,0.00072243,0.010988,-88.007,-100.95,-6.3276,0.00026132,-0.003672
1740.3,-0.00307215,0.00195253,0.00065937,3.77156E-09,-9.3351E-08,0.00072243,0.010988,-88.007,-100.95,-6.3276,0.00026132,-0.003672
1740.4,-0.00307215,0.00195253,0.00065937,3.77156E-09,-9.3351E-08,0.00072243,0.010988,-88.007,-100.95,-6.3276,0.00026132,-0.003672
1740.5,-0.00307215,0.00195253,0.00065937,3.77156E-09,-9.3351E-08,0.00072243,0.010988,-88.007,-100.95,-6.3276,0.00026132,-0.003672
1740.5,-0.00307215,0.00195253,0.00065937,3.77156E-09,-9.3351E-08,0.00072243,0.010988,-88.007,-100.95,-6.3276,0.00026132,-0.003672
1740.6,-0.00307215,0.00195253,0.00065937,3.77156E-09,-9.3351E-08,0.00072243,0.010988,-88.007,-100.95,-6.3276,0.00026132,-0.003672
1740.6,-0.00307215,0.00195253,0.00065937,3.77156E-09,-9.3351E-08,0.00072243,0.010988,-88.007,-100.95,-6.3276,0.00026132,-0.003672
1740.7,-0.00307215,0.00195253,0.00065937,3.77156E-09,-9.3351E-08,0.00072243,0.010988,-88.007,-100.95,-6.3276,0.00026132,-0.003672
1740.8,-0.00307215,0.00195253,0.00065937,3.77156E-09,-9.3351E-08,0.00072243,0.010988,-88.007,-100.95,-6.3276,0.00026132,-0.003672
1740.8,-0.00307215,0.00195253,0.00065937,3.77156E-09,-9.3351E-08,0.00072243,0.010988,-88.007,-100.95,-6.3276,0.00026132,-0.003672
1740.9,-0.00307215,0.00195253,0.00065937,3.77156E-09,-9.3351E-08,0.00072243,0.010988,-88.007,-100.95,-6.3276,0.00026132,-0.003672
1740.9,-0.00307215,0.00195253,0.00065937,3.77156E-09,-9.3351E-08,0.00072243,0.010988,-88.007,-100.95,-6.3276,0.00026132,-0.003672
1741,-0.00307215,0.00195253,0.00065937,3.77156E-09,-9.3351E-08,0.00072243,0.010988,-88.007,-100.95,-6.3276,0.00026132,-0.003672
1741.1,-0.00309979,0.00194952,0.00065923,5.08896E-09,-1.124E-07,0.00072596,-0.080226,-94.442,-107.06,-6.7836,0.00025992,-0.0036573
1741.1,-0.00309979,0.00194952,0.00065923,5.08896E-09,-1.124E-07,0.00072596,-0.080226,-94.442,-107.06,-6.7836,0.00025992,-0.0036573
1741.2,-0.00309979,0.00194952,0.00065923,5.08896E-09,-1.124E-07,0.00072596,-0.080226,-94.442,-107.06,-6.7836,0.00025992,-0.0036573
1741.2,-0.00309979,0.00194952,0.00065923,5.08896E-09,-1.124E-07,0.00072596,-0.080226,-94.442,-107.06,-6.7836,0.00025992,-0.0036573
1741.3,-0.00309979,0.00194952,0.00065923,5.08896E-09,-1.124E-07,0.00072596,-0.080226,-94.442,-107.06,-6.7836,0.00025992,-0.0036573
1741.4,-0.00309979,0.00194952,0.00065923,5.08896E-09,-1.124E-07,0.00072596,-0.080226,-94.442,-107.06,-6.7836,0.00025992,-0.0036573
1741.4,-0.00309979,0.00194952,0.00065923,5.08896E-09,-1.124E-07,0.00072596,-0.080226,-94.442,-107.06,-6.7836,0.00025992,-0.0036573
1741.5,-0.00309979,0.00194952,0.00065923,5.08896E-09,-1.124E-07,0.00072596,-0.080226,-94.442,-107.06,-6.7836,0.00025992,-0.0036573
1741.5,-0.00309979,0.00194952,0.00065923,5.08896E-09,-1.124E-07,0.00072596,-0.080226,-94.442,-107.06,-6.7836,0.00025992,-0.0036573
1741.6,-0.00309979,0.00194952,0.00065923,5.08896E-09,-1.124E-07,0.00072596,-0.080226,-94.442,-107.06,-6.7836,0.00025992,-0.0036573
1741.7,-0.00309979,0.00194952,0.00065923,5.08896E-09,-1.124E-07,0.00072596,-0.080226,-94.442,-107.06,-6.7836,0.00025992,-0.0036573
1741.7,-0.00309979,0.00194952,0.00065923,5.08896E-09,-1.124E-07,0.00072596,-0.080226,-94.442,-107.06,-6.7836,0.00025992,-0.0036573
1741.8,-0.00309979,0.00194952,0.00065923,5.08896E-09,-1.124E-07,0.00072596,-0.080226,-94.442,-107.06,-6.7836,0.00025992,-0.0036573
1741.8,-0.00309979,0.00194952,0.00065923,5.08896E-09,-1.124E-07,0.00072596,-0.080226,-94.442,-107.06,-6.7836,0.00025992,-0.0036573
1741.9,-0.00309979,0.00194952,0.00065923,5.08896E-09,-1.124E-07,0.00072596,-0.080226,-94.442,-107.06,-6.7836,0.00025992,-0.0036573
1742,-0.00309979,0.00194952,0.00065923,5.08896E-09,-1.124E-07,0.00072596,-0.080226,-94.442,-107.06,-6.7836,0.00025992,-0.0036573
1742,-0.00309876,0.00194656,0.00065918,-3.8188E-09,0.000000003,0.00072539,-0.15103,-97.012,-105.24,-6.9633,0.00016796,-0.0024833
1742.1,-0.00309876,0.00194656,0.00065918,-3.8188E-09,0.000000003,0.00072539,-0.15103,-97.012,-105.24,-6.9633,0.00016796,-0.0024833
1742.1,-0.00309876,0.00194656,0.00065918,-3.8188E-09,0.000000003,0.00072539,-0.15103,-97.012,-105.24,-6.9633,0.00016796,-0.0024833
1742.2,-0.00309876,0.00194656,0.00065918,-3.8188E-09,0.000000003,0.00072539,-0.15103,-97.012,-105.24,-6.9633,0.00016796,-0.0024833
1742.3,-0.00309876,0.00194656,0.00065918,-3.8188E-09,0.000000003,0.00072539,-0.15103,-97.012,-105.24,-6.9633,0.00016796,-0.0024833
1742.3,-0.00309876,0.00194656,0.00065918,-3.8188E-09,0.000000003,0.00072539,-0.15103,-97.012,-105.24,-6.9633,0.00016796,-0.0024833
1742.4,-0.00309876,0.00194656,0.00065918,-3.8188E-09,0.000000003,0.00072539,-0.15103,-97.012,-105.24,-6.9633,0.00016796,-0.0024833
1742.4,-0.00309876,0.00194656,0.00065918,-3.8188E-09,0.000000003,0.00072539,-0.15103,-97.012,-105.24,-6.9633,0.00016796,-0.0024833
1742.5,-0.00309876,0.00194656,0.00065918,-3.8188E-09,0.000000003,0.00072539,-0.15103,-97.012,-105.24,-6.9633,0.00016796,-0.0024833
1742.6,-0.00309876,0.00194656,0.00065918,-3.8188E-09,0.000000003,0.00072539,-0.15103,-97.012,-105.24,-6.9633,0.00016796,-0.0024833
1742.6,-0.00309876,0.00194656,0.00065918,-3.8188E-09,0.000000003,0.00072539,-0.15103,-97.012,-105.24,-6.9633,0.00016796,-0.0024833
1742.7,-0.00309876,0.00194656,0.00065918,-3.8188E-09,0.000000003,0.00072539,-0.15103,-97.012,-105.24,-6.9633,0.00016796,-0.0024833
1742.7,-0.00309876,0.00194656,0.00065918,-3.8188E-09,0.000000003,0.00072539,-0.15103,-97.012,-105.24,-6.9633,0.00016796,-0.0024833
1742.8,-0.00309876,0.00194656,0.00065918,-3.8188E-09,0.000000003,0.00072539,-0.15103,-97.012,-105.24,-6.9633,0.00016796,-0.0024833
1742.9,-0.00309876,0.00194656,0.00065918,-3.8188E-09,0.000000003,0.00072539,-0.15103,-97.012,-105.24,-6.9633,0.00016796,-0.0024833
1742.9,-0.00309876,0.00194656,0.00065918,-3.8188E-09,0.000000003,0.00072539,-0.15103,-97.012,-105.24,-6.9633,0.00016796,-0.0024833
1743,-0.00309876,0.00194656,0.00065918,-3.8188E-09,0.000000003,0.00072539,-0.15103,-97.012,-105.24,-6.9633,0.00016796,-0.0024833
1743,-0.00309671,0.00194365,0.00065907,-3.186354E-08,3.69756E-07,0.00072469,-0.2153,-98.356,-104.23,-7.0553,5.39E-05,-0.0010267
1743.1,-0.00309671,0.00194365,0.00065907,-3.186354E-08,3.69756E-07,0.00072469,-0.2153,-98.356,-104.23,-7.0553,5.39E-05,-0.0010267
1743.2,-0.00309671,0.00194365,0.00065907,-3.186354E-08,3.69756E-07,0.00072469,-0.2153,-98.356,-104.23,-7.0553,5.39E-05,-0.0010267
1743.2,-0.00309671,0.00194365,0.00065907,-3.186354E-08,3.69756E-07,0.00072469,-0.2153,-98.356,-104.23,-7.0553,5.39E-05,-0.0010267
1743.3,-0.00309671,0.00194365,0.00065907,-3.186354E-08,3.69756E-07,0.00072469,-0.2153,-98.356,-104.23,-7.0553,5.39E-05,-0.0010267
1743.3,-0.00309671,0.00194365,0.00065907,-3.186354E-08,3.69756E-07,0.00072469,-0.2153,-98.356,-104.23,-7.0553,5.39E-05,-0.0010267
1743.4,-0.00309671,0.00194365,0.00065907,-3.186354E-08,3.69756E-07,0.00072469,-0.2153,-98.356,-104.23,-7.0553,5.39E-05,-0.0010267
1743.5,-0.00309671,0.00194365,0.00065907,-3.186354E-08,3.69756E-07,0.00072469,-0.2153,-98.356,-104.23,-7.0553,5.39E-05,-0.0010267
1743.5,-0.00309671,0.00194365,0.00065907,-3.186354E-08,3.69756E-07,0.00072469,-0.2153,-98.356,-104.23,-7.0553,5.39E-05,-0.0010267
1743.6,-0.00309671,0.00194365,0.00065907,-3.186354E-08,3.69756E-07,0.00072469,-0.2153,-98.356,-104.23,-7.0553,5.39E-05,-0.0010267
1743.6,-0.00309671,0.00194365,0.00065907,-3.186354E-08,3.69756E-07,0.00072469,-0.2153,-98.356,-104.23,-7.0553,5.39E-05,-0.0010267
1743.7,-0.00309671,0.00194365,0.00065907,-3.186354E-08,3.69756E-07,0.00072469,-0.2153,-98.356,-104.23,-7.0553,5.39E-05,-0.0010267
1743.8,-0.00309671,0.00194365,0.00065907,-3.186354E-08,3.69756E-07,0.00072469,-0.2153,-98.356,-104.23,-7.0553,5.39E-05,-0.0010267
1743.8,-0.00309671,0.00194365,0.00065907,-3.186354E-08,3.69756E-07,0.00072469,-0.2153,-98.356,-104.23,-7.0553,5.39E-05,-0.0010267
1743.9,-0.00309671,0.00194365,0.00065907,-3.186354E-08,3.69756E-07,0.00072469,-0.2153,-98.356,-104.23,-7.0553,5.39E-05,-0.0010267
1743.9,-0.00309671,0.00194365,0.00065907,-3.186354E-08,3.69756E-07,0.00072469,-0.2153,-98.356,-104.23,-7.0553,5.39E-05,-0.0010267
1744,-0.00309671,0.00194365,0.00065907,-3.186354E-08,3.69756E-07,0.00072469,-0.2153,-98.356,-104.23,-7.0553,5.39E-05,-0.0010267
1744.1,-0.00309441,0.00194075,0.00065903,-0.000000078,9.824713E-07,0.00072393,-0.27652,-99.097,-103.68,-7.1041,-6.72E-05,0.00057346
1744.1,-0.00309441,0.00194075,0.00065903,-0.000000078,9.824713E-07,0.00072393,-0.27652,-99.097,-103.68,-7.1041,-6.72E-05,0.00057346
1744.2,-0.00309441,0.00194075,0.00065903,-0.000000078,9.824713E-07,0.00072393,-0.27652,-99.097,-103.68,-7.1041,-6.72E-05,0.00057346
1744.2,-0.00309441,0.00194075,0.00065903,-0.000000078,9.824713E-07,0.00072393,-0.27652,-99.097,-103.68,-7.1041,-6.72E-05,0.00057346
1744.3,-0.00309441,0.00194075,0.00065903,-0.000000078,9.824713E-07,0.00072393,-0.27652,-99.097,-103.68,-7.1041,-6.72E-05,0.00057346
1744.4,-0.00309441,0.00194075,0.00065903,-0.000000078,9.824713E-07,0.00072393,-0.27652,-99.097,-103.68,-7.1041,-6.72E-05,0.00057346
1744.4,-0.00309441,0.00194075,0.00065903,-0.000000078,9.824713E-07,0.00072393,-0.27652,-99.097,-103.68,-7.1041,-6.72E-05,0.00057346
1744.5,-0.00309441,0.00194075,0.00065903,-0.000000078,9.824713E-07,0.00072393,-0.27652,-99.097,-103.68,-7.1041,-6.72E-05,0.00057346
1744.5,-0.00309441,0.00194075,0.00065903,-0.000000078,9.824713E-07,0.00072393,-0.27652,-99.097,-103.68,-7.1041,-6.72E-05,0.00057346
1744.6,-0.00309441,0.00194075,0.00065903,-0.000000078,9.824713E-07,0.00072393,-0.27652,-99.097,-103.68,-7.1041,-6.72E-05,0.00057346
1744.7,-0.00309441,0.00194075,0.00065903,-0.000000078,9.824713E-07,0.00072393,-0.27652,-99.097,-103.68,-7.1041,-6.72E-05,0.00057346
1744.7,-0.00309441,0.00194075,0.00065903,-0.000000078,9.824713E-07,0.00072393,-0.27652,-99.097,-103.68,-7.1041,-6.72E-05,0.00057346
1744.8,-0.00309441,0.00194075,0.00065903,-0.000000078,9.824713E-07,0.00072393,-0.27652,-99.097,-103.68,-7.1041,-6.72E-05,0.00057346
1744.8,-0.00309441,0.00194075,0.00065903,-0.000000078,9.824713E-07,0.00072393,-0.27652,-99.097,-103.68,-7.1041,-6.72E-05,0.00057346
1744.9,-0.00309441,0.00194075,0.00065903,-0.000000078,9.824713E-07,0.00072393,-0.27652,-99.097,-103.68,-7.1041,-6.72E-05,0.00057346
1745,-0.00309441,0.00194075,0.00065903,-0.000000078,9.824713E-07,0.00072393,-0.27652,-99.097,-103.68,-7.1041,-6.72E-05,0.00057346
1745,-0.00309189,0.00193785,0.00065889,-1.445275E-07,1.881907E-06,0.00072316,-0.33631,-99.553,-103.38,-7.1326,-0.00019872,0.0023643
1745.1,-0.00309189,0.00193785,0.00065889,-1.445275E-07,1.881907E-06,0.00072316,-0.33631,-99.553,-103.38,-7.1326,-0.00019872,0.0023643
1745.1,-0.00309189,0.00193785,0.00065889,-1.445275E-07,1.881907E-06,0.00072316,-0.33631,-99.553,-103.38,-7.1326,-0.00019872,0.0023643
1745.2,-0.00309189,0.00193785,0.00065889,-1.445275E-07,1.881907E-06,0.00072316,-0.33631,-99.553,-103.38,-7.1326,-0.00019872,0.0023643
1745.3,-0.00309189,0.00193785,0.00065889,-1.445275E-07,1.881907E-06,0.00072316,-0.33631,-99.553,-103.38,-7.1326,-0.00019872,0.0023643
1745.3,-0.00309189,0.00193785,0.00065889,-1.445275E-07,1.881907E-06,0.00072316,-0.33631,-99.553,-103.38,-7.1326,-0.00019872,0.0023643
1745.4,-0.00309189,0.00193785,0.00065889,-1.445275E-07,1.881907E-06,0.00072316,-0.33631,-99.553,-103.38,-7.1326,-0.00019872,0.0023643
1745.4,-0.00309189,0.00193785,0.00065889,-1.445275E-07,1.881907E-06,0.00072316,-0.33631,-99.553,-103.38,-7.1326,-0.00019872,0.0023643
1745.5,-0.00309189,0.00193785,0.00065889,-1.445275E-07,1.881907E-06,0.00072316,-0.33631,-99.553,-103.38,-7.1326,-0.00019872,0.0023643
1745.6,-0.00309189,0.00193785,0.00065889,-1.445275E-07,1.881907E-06,0.00072316,-0.33631,-99.553,-103.38,-7.1326,-0.00019872,0.0023643
1745.6,-0.00309189,0.00193785,0.00065889,-1.445275E-07,1.881907E-06,0.00072316,-0.33631,-99.553,-103.38,-7.1326,-0.00019872,0.0023643
1745.7,-0.00309189,0.00193785,0.00065889,-1.445275E-07,1.881907E-06,0.00072316,-0.33631,-99.553,-103.38,-7.1326,-0.00019872,0.0023643
1745.7,-0.00309189,0.00193785,0.00065889,-1.445275E-07,1.881907E-06,0.00072316,-0.33631,-99.553,-103.38,-7.1326,-0.00019872,0.0023643
1745.8,-0.00309189,0.00193785,0.00065889,-1.445275E-07,1.881907E-06,0.00072316,-0.33631,-99.553,-103.38,-7.1326,-0.00019872,0.0023643
1745.9,-0.00309189,0.00193785,0.00065889,-1.445275E-07,1.881907E-06,0.00072316,-0.33631,-99.553,-103.38,-7.1326,-0.00019872,0.0023643
1745.9,-0.00309189,0.00193785,0.00065889,-1.445275E-07,1.881907E-06,0.00072316,-0.33631,-99.553,-103.38,-7.1326,-0.00019872,0.0023643
1746,-0.00309189,0.00193785,0.00065889,-1.445275E-07,1.881907E-06,0.00072316,-0.33631,-99.553,-103.38,-7.1326,-0.00019872,0.0023643
1746,-0.0030894,0.00193492,0.00065885,-2.357315E-07,3.14023E-06,0.00072238,-0.39538,-99.864,-103.21,-7.1507,-0.00034722,0.0044376
1746.1,-0.0030894,0.00193492,0.00065885,-2.357315E-07,3.14023E-06,0.00072238,-0.39538,-99.864,-103.21,-7.1507,-0.00034722,0.0044376
1746.2,-0.0030894,0.00193492,0.00065885,-2.357315E-07,3.14023E-06,0.00072238,-0.39538,-99.864,-103.21,-7.1507,-0.00034722,0.0044376
1746.2,-0.0030894,0.00193492,0.00065885,-2.357315E-07,3.14023E-06,0.00072238,-0.39538,-99.864,-103.21,-7.1507,-0.00034722,0.0044376
1746.3,-0.0030894,0.00193492,0.00065885,-2.357315E-07,3.14023E-06,0.00072238,-0.39538,-99.864,-103.21,-7.1507,-0.00034722,0.0044376
1746.3,-0.0030894,0.00193492,0.00065885,-2.357315E-07,3.14023E-06,0.00072238,-0.39538,-99.864,-103.21,-7.1507,-0.00034722,0.0044376
1746.4,-0.0030894,0.00193492,0.00065885,-2.357315E-07,3.14023E-06,0.00072238,-0.39538,-99.864,-103.21,-7.1507,-0.00034722,0.0044376
1746.5,-0.0030894,0.00193492,0.00065885,-2.357315E-07,3.14023E-06,0.00072238,-0.39538,-99.864,-103.21,-7.1507,-0.00034722,0.0044376
1746.5,-0.0030894,0.00193492,0.00065885,-2.357315E-07,3.14023E-06,0.00072238,-0.39538,-99.864,-103.21,-7.1507,-0.00034722,0.0044376
1746.6,-0.0030894,0.00193492,0.00065885,-2.357315E-07,3.14023E-06,0.00072238,-0.39538,-99.864,-103.21,-7.1507,-0.00034722,0.0044376
1746.6,-0.0030894,0.00193492,0.00065885,-2.357315E-07,3.14023E-06,0.00072238,-0.39538,-99.864,-103.21,-7.1507,-0.00034722,0.0044376
1746.7,-0.0030894,0.00193492,0.00065885,-2.357315E-07,3.14023E-06,0.00072238,-0.39538,-99.864,-103.21,-7.1507,-0.00034722,0.0044376
1746.8,-0.0030894,0.00193492,0.00065885,-2.357315E-07,3.14023E-06,0.00072238,-0.39538,-99.864,-103.21,-7.1507,-0.00034722,0.0044376
1746.8,-0.0030894,0.00193492,0.00065885,-2.357315E-07,3.14023E-06,0.00072238,-0.39538,-99.864,-103.21,-7.1507,-0.00034722,0.0044376
1746.9,-0.0030894,0.00193492,0.00065885,-2.357315E-07,3.14023E-06,0.00072238,-0.39538,-99.864,-103.21,-7.1507,-0.00034722,0.0044376
1746.9,-0.0030894,0.00193492,0.00065885,-2.357315E-07,3.14023E-06,0.00072238,-0.39538,-99.864,-103.21,-7.1507,-0.00034722,0.0044376
1747,-0.0030894,0.00193492,0.00065885,-2.357315E-07,3.14023E-06,0.00072238,-0.39538,-99.864,-103.21,-7.1507,-0.00034722,0.0044376
1747.1,-0.00308692,0.00193208,0.00065876,-3.581589E-07,0.000004861,0.0007216,-0.45403,-100.09,-103.11,-7.1629,-0.00052272,0.0069437
1747.1,-0.00308692,0.00193208,0.00065876,-3.581589E-07,0.000004861,0.0007216,-0.45403,-100.09,-103.11,-7.1629,-0.00052272,0.0069437
1747.2,-0.00308692,0.00193208,0.00065876,-3.581589E-07,0.000004861,0.0007216,-0.45403,-100.09,-103.11,-7.1629,-0.00052272,0.0069437
1747.2,-0.00308692,0.00193208,0.00065876,-3.581589E-07,0.000004861,0.0007216,-0.45403,-100.09,-103.11,-7.1629,-0.00052272,0.0069437
1747.3,-0.00308692,0.00193208,0.00065876,-3.581589E-07,0.000004861,0.0007216,-0.45403,-100.09,-103.11,-7.1629,-0.00052272,0.0069437
1747.4,-0.00308692,0.00193208,0.00065876,-3.581589E-07,0.000004861,0.0007216,-0.45403,-100.09,-103.11,-7.1629,-0.00052272,0.0069437
1747.4,-0.00308692,0.00193208,0.00065876,-3.581589E-07,0.000004861,0.0007216,-0.45403,-100.09,-103.11,-7.1629,-0.00052272,0.0069437
1747.5,-0.00308692,0.00193208,0.00065876,-3.581589E-07,0.000004861,0.0007216,-0.45403,-100.09,-103.11,-7.1629,-0.00052272,0.0069437
1747.5,-0.00308692,0.00193208,0.00065876,-3.581589E-07,0.000004861,0.0007216,-0.45403,-100.09,-103.11,-7.1629,-0.00052272,0.0069437
1747.6,-0.00308692,0.00193208,0.00065876,-3.581589E-07,0.000004861,0.0007216,-0.45403,-100.09,-103.11,-7.1629,-0.00052272,0.0069437
1747.7,-0.00308692,0.00193208,0.00065876,-3.581589E-07,0.000004861,0.0007216,-0.45403,-100.09,-103.11,-7.1629,-0.00052272,0.0069437
1747.7,-0.00308692,0.00193208,0.00065876,-3.581589E-07,0.000004861,0.0007216,-0.45403,-100.09,-103.11,-7.1629,-0.00052272,0.0069437
1747.8,-0.00308692,0.00193208,0.00065876,-3.581589E-07,0.000004861,0.0007216,-0.45403,-100.09,-103.11,-7.1629,-0.00052272,0.0069437
1747.8,-0.00308692,0.00193208,0.00065876,-3.581589E-07,0.000004861,0.0007216,-0.45403,-100.09,-103.11,-7.1629,-0.00052272,0.0069437
1747.9,-0.00308692,0.00193208,0.00065876,-3.581589E-07,0.000004861,0.0007216,-0.45403,-100.09,-103.11,-7.1629,-0.00052272,0.0069437
1748,-0.00308692,0.00193208,0.00065876,-3.581589E-07,0.000004861,0.0007216,-0.45403,-100.09,-103.11,-7.1629,-0.00052272,0.0069437
1748,-0.00308435,0.00192915,0.00065868,-5.21312E-07,7.1932E-06,0.00072083,-0.51242,-100.27,-103.05,-7.1714,-0.00073131,0.0099792
1748.1,-0.00308435,0.00192915,0.00065868,-5.21312E-07,7.1932E-06,0.00072083,-0.51242,-100.27,-103.05,-7.1714,-0.00073131,0.0099792
1748.1,-0.00308435,0.00192915,0.00065868,-5.21312E-07,7.1932E-06,0.00072083,-0.51242,-100.27,-103.05,-7.1714,-0.00073131,0.0099792
1748.2,-0.00308435,0.00192915,0.00065868,-5.21312E-07,7.1932E-06,0.00072083,-0.51242,-100.27,-103.05,-7.1714,-0.00073131,0.0099792
1748.3,-0.00308435,0.00192915,0.00065868,-5.21312E-07,7.1932E-06,0.00072083,-0.51242,-100.27,-103.05,-7.1714,-0.00073131,0.0099792
1748.3,-0.00308435,0.00192915,0.00065868,-5.21312E-07,7.1932E-06,0.00072083,-0.51242,-100.27,-103.05,-7.1714,-0.00073131,0.0099792
1748.4,-0.00308435,0.00192915,0.00065868,-5.21312E-07,7.1932E-06,0.00072083,-0.51242,-100.27,-103.05,-7.1714,-0.00073131,0.0099792
1748.4,-0.00308435,0.00192915,0.00065868,-5.21312E-07,7.1932E-06,0.00072083,-0.51242,-100.27,-103.05,-7.1714,-0.00073131,0.0099792
1748.5,-0.00308435,0.00192915,0.00065868,-5.21312E-07,7.1932E-06,0.00072083,-0.51242,-100.27,-103.05,-7.1714,-0.00073131,0.0099792
1748.6,-0.00308435,0.00192915,0.00065868,-5.21312E-07,7.1932E-06,0.00072083,-0.51242,-100.27,-103.05,-7.1714,-0.00073131,0.0099792
1748.6,-0.00308435,0.00192915,0.00065868,-5.21312E-07,7.1932E-06,0.00072083,-0.51242,-100.27,-103.05,-7.1714,-0.00073131,0.0099792
1748.7,-0.00308435,0.00192915,0.00065868,-5.21312E-07,7.1932E-06,0.00072083,-0.51242,-100.27,-103.05,-7.1714,-0.00073131,0.0099792
1748.7,-0.00308435,0.00192915,0.00065868,-5.21312E-07,7.1932E-06,0.00072083,-0.51242,-100.27,-103.05,-7.1714,-0.00073131,0.0099792
1748.8,-0.00308435,0.00192915,0.00065868,-5.21312E-07,7.1932E-06,0.00072083,-0.51242,-100.27,-103.05,-7.1714,-0.00073131,0.0099792
1748.9,-0.00308435,0.00192915,0.00065868,-5.21312E-07,7.1932E-06,0.00072083,-0.51242,-100.27,-103.05,-7.1714,-0.00073131,0.0099792
1748.9,-0.00308435,0.00192915,0.00065868,-5.21312E-07,7.1932E-06,0.00072083,-0.51242,-100.27,-103.05,-7.1714,-0.00073131,0.0099792
1749,-0.00308435,0.00192915,0.00065868,-5.21312E-07,7.1932E-06,0.00072083,-0.51242,-100.27,-103.05,-7.1714,-0.00073131,0.0099792
1749,-0.00308188,0.00192629,0.00065864,-7.3827E-07,1.034191E-05,0.00072004,-0.57061,-100.41,-103.03,-7.1776,-0.00098659,0.013749
1749.1,-0.00308188,0.00192629,0.00065864,-7.3827E-07,1.034191E-05,0.00072004,-0.57061,-100.41,-103.03,-7.1776,-0.00098659,0.013749
1749.2,-0.00308188,0.00192629,0.00065864,-7.3827E-07,1.034191E-05,0.00072004,-0.57061,-100.41,-103.03,-7.1776,-0.00098659,0.013749
1749.2,-0.00308188,0.00192629,0.00065864,-7.3827E-07,1.034191E-05,0.00072004,-0.57061,-100.41,-103.03,-7.1776,-0.00098659,0.013749
1749.3,-0.00308188,0.00192629,0.00065864,-7.3827E-07,1.034191E-05,0.00072004,-0.57061,-100.41,-103.03,-7.1776,-0.00098659,0.013749
1749.3,-0.00308188,0.00192629,0.00065864,-7.3827E-07,1.034191E-05,0.00072004,-0.57061,-100.41,-103.03,-7.1776,-0.00098659,0.013749
1749.4,-0.00308188,0.00192629,0.00065864,-7.3827E-07,1.034191E-05,0.00072004,-0.57061,-100.41,-103.03,-7.1776,-0.00098659,0.013749
1749.5,-0.00308188,0.00192629,0.00065864,-7.3827E-07,1.034191E-05,0.00072004,-0.57061,-100.41,-103.03,-7.1776,-0.00098659,0.013749
1749.5,-0.00308188,0.00192629,0.00065864,-7.3827E-07,1.034191E-05,0.00072004,-0.57061,-100.41,-103.03,-7.1776,-0.00098659,0.013749
1749.6,-0.00308188,0.00192629,0.00065864,-7.3827E-07,1.034191E-05,0.00072004,-0.57061,-100.41,-103.03,-7.1776,-0.00098659,0.013749
1749.6,-0.00308188,0.00192629,0.00065864,-7.3827E-07,1.034191E-05,0.00072004,-0.57061,-100.41,-103.03,-7.1776,-0.00098659,0.013749
1749.7,-0.00308188,0.00192629,0.00065864,-7.3827E-07,1.034191E-05,0.00072004,-0.57061,-100.41,-103.03,-7.1776,-0.00098659,0.013749
1749.8,-0.00308188,0.00192629,0.00065864,-7.3827E-07,1.034191E-05,0.00072004,-0.57061,-100.41,-103.03,-7.1776,-0.00098659,0.013749
1749.8,-0.00308188,0.00192629,0.00065864,-7.3827E-07,1.034191E-05,0.00072004,-0.57061,-100.41,-103.03,-7.1776,-0.00098659,0.013749
1749.9,-0.00308188,0.00192629,0.00065864,-7.3827E-07,1.034191E-05,0.00072004,-0.57061,-100.41,-103.03,-7.1776,-0.00098659,0.013749
1749.9,-0.00308188,0.00192629,0.00065864,-7.3827E-07,1.034191E-05,0.00072004,-0.57061,-100.41,-103.03,-7.1776,-0.00098659,0.013749
1750,-0.00308188,0.00192629,0.00065864,-7.3827E-07,1.034191E-05,0.00072004,-0.57061,-100.41,-103.03,-7.1776,-0.00098659,0.013749
