"Temperature","Reference temperature","Stress-xx","Stress-yy","Stress-zz","Stress-xy","Stress-yz","Stress-xz","Stress work density","mises stress","C1-Mat val","C2-Mat val","C3-Mat val","Stress invariant 1","Stress invariant 2","Stress invariant 3","Stress principle (min)","Stress principle (inter)","Stress principle (max)","Stress dir cosine l1","Stress dir cosine m1","Stress dir cosine n1","Stress dir cosine l2","Stress dir cosine m2","Stress dir cosine n2","Stress dir cosine l3","Stress dir cosine m3","Stress dir cosine n3","Strain-xx","Strain-yy","Strain-zz","Strain-xy","Strain-yz","Strain-xz","Effective mises strain","Strain invariant 1","Strain invariant 2","Strain invariant 3","Strain principle (min)","Strain principle (inter)","Strain principle (max)","Strain dir cosine l1","Strain dir cosine m1","Strain dir cosine n1","Strain dir cosine l2","Strain dir cosine m2","Strain dir cosine n2","Strain dir cosine l3","Strain dir cosine m3","Strain dir cosine n3","e-xx - Elastic strain","e-yy - Elastic strain","e-zz - Elastic strain","e-xy - Elastic strain","e-yz - Elastic strain","e-xz - Elastic strain","p-xx - Inelastic strain","p-yy - Inelastic strain","p-zz - Inelastic strain","p-xy - Inelastic strain","p-yz - Inelastic strain","p-xz - Inelastic strain","ObjectId","vtkValidPointMask","arc_length","Points:0","Points:1","Points:2"
-1.4788e-13,-1.4788e-13,-0.57778,42.52,41.579,3.0982,-0.0035133,0.054161,1.3758,42.972,0,0,0,83.522,1709.8,-1420.7,-0.79943,41.579,42.742,0.99745,-0.071337,-0.0012807,0.0012554,-0.0003997,1,-0.071338,-0.99745,-0.00030912,-0.0025595,0.0020881,0.00066347,0.00066803,-2.6615e-06,4.2228e-05,0.0027765,0.000192,-5.7693e-06,-3.6209e-09,-0.0025836,0.00066361,0.0021119,0.99743,-0.071317,-0.0065151,0.0064897,-0.00058752,0.99998,-0.071319,-0.99745,-0.00012319,-0.00014832,0.00017368,0.00016665,-5.2497e-08,8.0931e-07,4.6295e-05,-0.0024112,0.0019144,0.00049682,-2.609e-06,4.1418e-05,0.00062173,1,1,0,1690,0,3000
-1.4415e-13,-1.4415e-13,-0.57778,42.52,41.579,3.0982,-0.0035133,0.054161,1.3758,42.972,0,0,0,83.522,1709.8,-1420.7,-0.79943,41.579,42.742,0.99745,-0.071337,-0.0012807,0.0012554,-0.0003997,1,-0.071338,-0.99745,-0.00030912,-0.0025595,0.0020881,0.00066347,0.00066803,-2.6615e-06,4.2228e-05,0.0027765,0.000192,-5.7693e-06,-3.6209e-09,-0.0025836,0.00066361,0.0021119,0.99743,-0.071317,-0.0065151,0.0064897,-0.00058752,0.99998,-0.071319,-0.99745,-0.00012319,-0.00014832,0.00017368,0.00016665,-5.2497e-08,8.0931e-07,4.6295e-05,-0.0024112,0.0019144,0.00049682,-2.609e-06,4.1418e-05,0.00062173,1,1,0.060059,1690.1,0,3000
-1.4042e-13,-1.4042e-13,-0.57778,42.52,41.579,3.0982,-0.0035133,0.054161,1.3758,42.972,0,0,0,83.522,1709.8,-1420.7,-0.79943,41.579,42.742,0.99745,-0.071337,-0.0012807,0.0012554,-0.0003997,1,-0.071338,-0.99745,-0.00030912,-0.0025595,0.0020881,0.00066347,0.00066803,-2.6615e-06,4.2228e-05,0.0027765,0.000192,-5.7693e-06,-3.6209e-09,-0.0025836,0.00066361,0.0021119,0.99743,-0.071317,-0.0065151,0.0064897,-0.00058752,0.99998,-0.071319,-0.99745,-0.00012319,-0.00014832,0.00017368,0.00016665,-5.2497e-08,8.0931e-07,4.6295e-05,-0.0024112,0.0019144,0.00049682,-2.609e-06,4.1418e-05,0.00062173,1,1,0.12,1690.1,0,3000
-1.3669e-13,-1.3669e-13,-0.57778,42.52,41.579,3.0982,-0.0035133,0.054161,1.3758,42.972,0,0,0,83.522,1709.8,-1420.7,-0.79943,41.579,42.742,0.99745,-0.071337,-0.0012807,0.0012554,-0.0003997,1,-0.071338,-0.99745,-0.00030912,-0.0025595,0.0020881,0.00066347,0.00066803,-2.6615e-06,4.2228e-05,0.0027765,0.000192,-5.7693e-06,-3.6209e-09,-0.0025836,0.00066361,0.0021119,0.99743,-0.071317,-0.0065151,0.0064897,-0.00058752,0.99998,-0.071319,-0.99745,-0.00012319,-0.00014832,0.00017368,0.00016665,-5.2497e-08,8.0931e-07,4.6295e-05,-0.0024112,0.0019144,0.00049682,-2.609e-06,4.1418e-05,0.00062173,1,1,0.18005,1690.2,0,3000
-1.3296e-13,-1.3296e-13,-0.57778,42.52,41.579,3.0982,-0.0035133,0.054161,1.3758,42.972,0,0,0,83.522,1709.8,-1420.7,-0.79943,41.579,42.742,0.99745,-0.071337,-0.0012807,0.0012554,-0.0003997,1,-0.071338,-0.99745,-0.00030912,-0.0025595,0.0020881,0.00066347,0.00066803,-2.6615e-06,4.2228e-05,0.0027765,0.000192,-5.7693e-06,-3.6209e-09,-0.0025836,0.00066361,0.0021119,0.99743,-0.071317,-0.0065151,0.0064897,-0.00058752,0.99998,-0.071319,-0.99745,-0.00012319,-0.00014832,0.00017368,0.00016665,-5.2497e-08,8.0931e-07,4.6295e-05,-0.0024112,0.0019144,0.00049682,-2.609e-06,4.1418e-05,0.00062173,1,1,0.23999,1690.2,0,3000
-1.2923e-13,-1.2923e-13,-0.57778,42.52,41.579,3.0982,-0.0035133,0.054161,1.3758,42.972,0,0,0,83.522,1709.8,-1420.7,-0.79943,41.579,42.742,0.99745,-0.071337,-0.0012807,0.0012554,-0.0003997,1,-0.071338,-0.99745,-0.00030912,-0.0025595,0.0020881,0.00066347,0.00066803,-2.6615e-06,4.2228e-05,0.0027765,0.000192,-5.7693e-06,-3.6209e-09,-0.0025836,0.00066361,0.0021119,0.99743,-0.071317,-0.0065151,0.0064897,-0.00058752,0.99998,-0.071319,-0.99745,-0.00012319,-0.00014832,0.00017368,0.00016665,-5.2497e-08,8.0931e-07,4.6295e-05,-0.0024112,0.0019144,0.00049682,-2.609e-06,4.1418e-05,0.00062173,1,1,0.30005,1690.3,0,3000
-1.255e-13,-1.255e-13,-0.57778,42.52,41.579,3.0982,-0.0035133,0.054161,1.3758,42.972,0,0,0,83.522,1709.8,-1420.7,-0.79943,41.579,42.742,0.99745,-0.071337,-0.0012807,0.0012554,-0.0003997,1,-0.071338,-0.99745,-0.00030912,-0.0025595,0.0020881,0.00066347,0.00066803,-2.6615e-06,4.2228e-05,0.0027765,0.000192,-5.7693e-06,-3.6209e-09,-0.0025836,0.00066361,0.0021119,0.99743,-0.071317,-0.0065151,0.0064897,-0.00058752,0.99998,-0.071319,-0.99745,-0.00012319,-0.00014832,0.00017368,0.00016665,-5.2497e-08,8.0931e-07,4.6295e-05,-0.0024112,0.0019144,0.00049682,-2.609e-06,4.1418e-05,0.00062173,1,1,0.35999,1690.4,0,3000
-1.2177e-13,-1.2177e-13,-0.57778,42.52,41.579,3.0982,-0.0035133,0.054161,1.3758,42.972,0,0,0,83.522,1709.8,-1420.7,-0.79943,41.579,42.742,0.99745,-0.071337,-0.0012807,0.0012554,-0.0003997,1,-0.071338,-0.99745,-0.00030912,-0.0025595,0.0020881,0.00066347,0.00066803,-2.6615e-06,4.2228e-05,0.0027765,0.000192,-5.7693e-06,-3.6209e-09,-0.0025836,0.00066361,0.0021119,0.99743,-0.071317,-0.0065151,0.0064897,-0.00058752,0.99998,-0.071319,-0.99745,-0.00012319,-0.00014832,0.00017368,0.00016665,-5.2497e-08,8.0931e-07,4.6295e-05,-0.0024112,0.0019144,0.00049682,-2.609e-06,4.1418e-05,0.00062173,1,1,0.42004,1690.4,0,3000
-1.1804e-13,-1.1804e-13,-0.57778,42.52,41.579,3.0982,-0.0035133,0.054161,1.3758,42.972,0,0,0,83.522,1709.8,-1420.7,-0.79943,41.579,42.742,0.99745,-0.071337,-0.0012807,0.0012554,-0.0003997,1,-0.071338,-0.99745,-0.00030912,-0.0025595,0.0020881,0.00066347,0.00066803,-2.6615e-06,4.2228e-05,0.0027765,0.000192,-5.7693e-06,-3.6209e-09,-0.0025836,0.00066361,0.0021119,0.99743,-0.071317,-0.0065151,0.0064897,-0.00058752,0.99998,-0.071319,-0.99745,-0.00012319,-0.00014832,0.00017368,0.00016665,-5.2497e-08,8.0931e-07,4.6295e-05,-0.0024112,0.0019144,0.00049682,-2.609e-06,4.1418e-05,0.00062173,1,1,0.47998,1690.5,0,3000
-1.1431e-13,-1.1431e-13,-0.57778,42.52,41.579,3.0982,-0.0035133,0.054161,1.3758,42.972,0,0,0,83.522,1709.8,-1420.7,-0.79943,41.579,42.742,0.99745,-0.071337,-0.0012807,0.0012554,-0.0003997,1,-0.071338,-0.99745,-0.00030912,-0.0025595,0.0020881,0.00066347,0.00066803,-2.6615e-06,4.2228e-05,0.0027765,0.000192,-5.7693e-06,-3.6209e-09,-0.0025836,0.00066361,0.0021119,0.99743,-0.071317,-0.0065151,0.0064897,-0.00058752,0.99998,-0.071319,-0.99745,-0.00012319,-0.00014832,0.00017368,0.00016665,-5.2497e-08,8.0931e-07,4.6295e-05,-0.0024112,0.0019144,0.00049682,-2.609e-06,4.1418e-05,0.00062173,1,1,0.54004,1690.5,0,3000
-1.1058e-13,-1.1058e-13,-0.57778,42.52,41.579,3.0982,-0.0035133,0.054161,1.3758,42.972,0,0,0,83.522,1709.8,-1420.7,-0.79943,41.579,42.742,0.99745,-0.071337,-0.0012807,0.0012554,-0.0003997,1,-0.071338,-0.99745,-0.00030912,-0.0025595,0.0020881,0.00066347,0.00066803,-2.6615e-06,4.2228e-05,0.0027765,0.000192,-5.7693e-06,-3.6209e-09,-0.0025836,0.00066361,0.0021119,0.99743,-0.071317,-0.0065151,0.0064897,-0.00058752,0.99998,-0.071319,-0.99745,-0.00012319,-0.00014832,0.00017368,0.00016665,-5.2497e-08,8.0931e-07,4.6295e-05,-0.0024112,0.0019144,0.00049682,-2.609e-06,4.1418e-05,0.00062173,1,1,0.59998,1690.6,0,3000
-1.0685e-13,-1.0685e-13,-0.57778,42.52,41.579,3.0982,-0.0035133,0.054161,1.3758,42.972,0,0,0,83.522,1709.8,-1420.7,-0.79943,41.579,42.742,0.99745,-0.071337,-0.0012807,0.0012554,-0.0003997,1,-0.071338,-0.99745,-0.00030912,-0.0025595,0.0020881,0.00066347,0.00066803,-2.6615e-06,4.2228e-05,0.0027765,0.000192,-5.7693e-06,-3.6209e-09,-0.0025836,0.00066361,0.0021119,0.99743,-0.071317,-0.0065151,0.0064897,-0.00058752,0.99998,-0.071319,-0.99745,-0.00012319,-0.00014832,0.00017368,0.00016665,-5.2497e-08,8.0931e-07,4.6295e-05,-0.0024112,0.0019144,0.00049682,-2.609e-06,4.1418e-05,0.00062173,1,1,0.66003,1690.7,0,3000
-1.0312e-13,-1.0312e-13,-0.57778,42.52,41.579,3.0982,-0.0035133,0.054161,1.3758,42.972,0,0,0,83.522,1709.8,-1420.7,-0.79943,41.579,42.742,0.99745,-0.071337,-0.0012807,0.0012554,-0.0003997,1,-0.071338,-0.99745,-0.00030912,-0.0025595,0.0020881,0.00066347,0.00066803,-2.6615e-06,4.2228e-05,0.0027765,0.000192,-5.7693e-06,-3.6209e-09,-0.0025836,0.00066361,0.0021119,0.99743,-0.071317,-0.0065151,0.0064897,-0.00058752,0.99998,-0.071319,-0.99745,-0.00012319,-0.00014832,0.00017368,0.00016665,-5.2497e-08,8.0931e-07,4.6295e-05,-0.0024112,0.0019144,0.00049682,-2.609e-06,4.1418e-05,0.00062173,1,1,0.71997,1690.7,0,3000
-9.9385e-14,-9.9385e-14,-0.57778,42.52,41.579,3.0982,-0.0035133,0.054161,1.3758,42.972,0,0,0,83.522,1709.8,-1420.7,-0.79943,41.579,42.742,0.99745,-0.071337,-0.0012807,0.0012554,-0.0003997,1,-0.071338,-0.99745,-0.00030912,-0.0025595,0.0020881,0.00066347,0.00066803,-2.6615e-06,4.2228e-05,0.0027765,0.000192,-5.7693e-06,-3.6209e-09,-0.0025836,0.00066361,0.0021119,0.99743,-0.071317,-0.0065151,0.0064897,-0.00058752,0.99998,-0.071319,-0.99745,-0.00012319,-0.00014832,0.00017368,0.00016665,-5.2497e-08,8.0931e-07,4.6295e-05,-0.0024112,0.0019144,0.00049682,-2.609e-06,4.1418e-05,0.00062173,1,1,0.78003,1690.8,0,3000
-9.5659e-14,-9.5659e-14,-0.57778,42.52,41.579,3.0982,-0.0035133,0.054161,1.3758,42.972,0,0,0,83.522,1709.8,-1420.7,-0.79943,41.579,42.742,0.99745,-0.071337,-0.0012807,0.0012554,-0.0003997,1,-0.071338,-0.99745,-0.00030912,-0.0025595,0.0020881,0.00066347,0.00066803,-2.6615e-06,4.2228e-05,0.0027765,0.000192,-5.7693e-06,-3.6209e-09,-0.0025836,0.00066361,0.0021119,0.99743,-0.071317,-0.0065151,0.0064897,-0.00058752,0.99998,-0.071319,-0.99745,-0.00012319,-0.00014832,0.00017368,0.00016665,-5.2497e-08,8.0931e-07,4.6295e-05,-0.0024112,0.0019144,0.00049682,-2.609e-06,4.1418e-05,0.00062173,1,1,0.83997,1690.8,0,3000
-9.1925e-14,-9.1925e-14,-0.57778,42.52,41.579,3.0982,-0.0035133,0.054161,1.3758,42.972,0,0,0,83.522,1709.8,-1420.7,-0.79943,41.579,42.742,0.99745,-0.071337,-0.0012807,0.0012554,-0.0003997,1,-0.071338,-0.99745,-0.00030912,-0.0025595,0.0020881,0.00066347,0.00066803,-2.6615e-06,4.2228e-05,0.0027765,0.000192,-5.7693e-06,-3.6209e-09,-0.0025836,0.00066361,0.0021119,0.99743,-0.071317,-0.0065151,0.0064897,-0.00058752,0.99998,-0.071319,-0.99745,-0.00012319,-0.00014832,0.00017368,0.00016665,-5.2497e-08,8.0931e-07,4.6295e-05,-0.0024112,0.0019144,0.00049682,-2.609e-06,4.1418e-05,0.00062173,1,1,0.90002,1690.9,0,3000
-8.8199e-14,-8.8199e-14,-0.57778,42.52,41.579,3.0982,-0.0035133,0.054161,1.3758,42.972,0,0,0,83.522,1709.8,-1420.7,-0.79943,41.579,42.742,0.99745,-0.071337,-0.0012807,0.0012554,-0.0003997,1,-0.071338,-0.99745,-0.00030912,-0.0025595,0.0020881,0.00066347,0.00066803,-2.6615e-06,4.2228e-05,0.0027765,0.000192,-5.7693e-06,-3.6209e-09,-0.0025836,0.00066361,0.0021119,0.99743,-0.071317,-0.0065151,0.0064897,-0.00058752,0.99998,-0.071319,-0.99745,-0.00012319,-0.00014832,0.00017368,0.00016665,-5.2497e-08,8.0931e-07,4.6295e-05,-0.0024112,0.0019144,0.00049682,-2.609e-06,4.1418e-05,0.00062173,1,1,0.95996,1691,0,3000
-8.9194e-14,-8.9194e-14,-0.55151,42.567,41.582,3.0997,-0.0028523,0.043911,1.2512,42.972,0,0,0,83.598,1714,-1375.8,-0.77325,41.582,42.789,0.99745,-0.071338,-0.0010389,0.0010192,-0.00031179,1,-0.071338,-0.99745,-0.00023829,-0.0025565,0.0020853,0.00066339,0.00066727,-2.3076e-06,3.6076e-05,0.0027731,0.00019218,-5.7553e-06,-3.6111e-09,-0.0025805,0.00066349,0.0021092,0.99744,-0.071325,-0.0055718,0.0055509,-0.00049105,0.99998,-0.071327,-0.99745,-9.3873e-05,-0.00014826,0.0001739,0.00016654,-4.262e-08,6.5615e-07,4.6318e-05,-0.0024082,0.0019114,0.00049685,-2.265e-06,3.542e-05,0.00062095,1,1,1.02,1691,0,3000
-9.9628e-14,-9.9628e-14,-0.55151,42.567,41.582,3.0997,-0.0028523,0.043911,1.2512,42.972,0,0,0,83.598,1714,-1375.8,-0.77325,41.582,42.789,0.99745,-0.071338,-0.0010389,0.0010192,-0.00031179,1,-0.071338,-0.99745,-0.00023829,-0.0025565,0.0020853,0.00066339,0.00066727,-2.3076e-06,3.6076e-05,0.0027731,0.00019218,-5.7553e-06,-3.6111e-09,-0.0025805,0.00066349,0.0021092,0.99744,-0.071325,-0.0055718,0.0055509,-0.00049105,0.99998,-0.071327,-0.99745,-9.3873e-05,-0.00014826,0.0001739,0.00016654,-4.262e-08,6.5615e-07,4.6318e-05,-0.0024082,0.0019114,0.00049685,-2.265e-06,3.542e-05,0.00062095,1,1,1.08,1691.1,0,3000
-1.1008e-13,-1.1008e-13,-0.55151,42.567,41.582,3.0997,-0.0028523,0.043911,1.2512,42.972,0,0,0,83.598,1714,-1375.8,-0.77325,41.582,42.789,0.99745,-0.071338,-0.0010389,0.0010192,-0.00031179,1,-0.071338,-0.99745,-0.00023829,-0.0025565,0.0020853,0.00066339,0.00066727,-2.3076e-06,3.6076e-05,0.0027731,0.00019218,-5.7553e-06,-3.6111e-09,-0.0025805,0.00066349,0.0021092,0.99744,-0.071325,-0.0055718,0.0055509,-0.00049105,0.99998,-0.071327,-0.99745,-9.3873e-05,-0.00014826,0.0001739,0.00016654,-4.262e-08,6.5615e-07,4.6318e-05,-0.0024082,0.0019114,0.00049685,-2.265e-06,3.542e-05,0.00062095,1,1,1.14,1691.1,0,3000
-1.2052e-13,-1.2052e-13,-0.55151,42.567,41.582,3.0997,-0.0028523,0.043911,1.2512,42.972,0,0,0,83.598,1714,-1375.8,-0.77325,41.582,42.789,0.99745,-0.071338,-0.0010389,0.0010192,-0.00031179,1,-0.071338,-0.99745,-0.00023829,-0.0025565,0.0020853,0.00066339,0.00066727,-2.3076e-06,3.6076e-05,0.0027731,0.00019218,-5.7553e-06,-3.6111e-09,-0.0025805,0.00066349,0.0021092,0.99744,-0.071325,-0.0055718,0.0055509,-0.00049105,0.99998,-0.071327,-0.99745,-9.3873e-05,-0.00014826,0.0001739,0.00016654,-4.262e-08,6.5615e-07,4.6318e-05,-0.0024082,0.0019114,0.00049685,-2.265e-06,3.542e-05,0.00062095,1,1,1.2,1691.2,0,3000
-1.3097e-13,-1.3097e-13,-0.55151,42.567,41.582,3.0997,-0.0028523,0.043911,1.2512,42.972,0,0,0,83.598,1714,-1375.8,-0.77325,41.582,42.789,0.99745,-0.071338,-0.0010389,0.0010192,-0.00031179,1,-0.071338,-0.99745,-0.00023829,-0.0025565,0.0020853,0.00066339,0.00066727,-2.3076e-06,3.6076e-05,0.0027731,0.00019218,-5.7553e-06,-3.6111e-09,-0.0025805,0.00066349,0.0021092,0.99744,-0.071325,-0.0055718,0.0055509,-0.00049105,0.99998,-0.071327,-0.99745,-9.3873e-05,-0.00014826,0.0001739,0.00016654,-4.262e-08,6.5615e-07,4.6318e-05,-0.0024082,0.0019114,0.00049685,-2.265e-06,3.542e-05,0.00062095,1,1,1.26,1691.3,0,3000
-1.4141e-13,-1.4141e-13,-0.55151,42.567,41.582,3.0997,-0.0028523,0.043911,1.2512,42.972,0,0,0,83.598,1714,-1375.8,-0.77325,41.582,42.789,0.99745,-0.071338,-0.0010389,0.0010192,-0.00031179,1,-0.071338,-0.99745,-0.00023829,-0.0025565,0.0020853,0.00066339,0.00066727,-2.3076e-06,3.6076e-05,0.0027731,0.00019218,-5.7553e-06,-3.6111e-09,-0.0025805,0.00066349,0.0021092,0.99744,-0.071325,-0.0055718,0.0055509,-0.00049105,0.99998,-0.071327,-0.99745,-9.3873e-05,-0.00014826,0.0001739,0.00016654,-4.262e-08,6.5615e-07,4.6318e-05,-0.0024082,0.0019114,0.00049685,-2.265e-06,3.542e-05,0.00062095,1,1,1.3199,1691.3,0,3000
-1.5186e-13,-1.5186e-13,-0.55151,42.567,41.582,3.0997,-0.0028523,0.043911,1.2512,42.972,0,0,0,83.598,1714,-1375.8,-0.77325,41.582,42.789,0.99745,-0.071338,-0.0010389,0.0010192,-0.00031179,1,-0.071338,-0.99745,-0.00023829,-0.0025565,0.0020853,0.00066339,0.00066727,-2.3076e-06,3.6076e-05,0.0027731,0.00019218,-5.7553e-06,-3.6111e-09,-0.0025805,0.00066349,0.0021092,0.99744,-0.071325,-0.0055718,0.0055509,-0.00049105,0.99998,-0.071327,-0.99745,-9.3873e-05,-0.00014826,0.0001739,0.00016654,-4.262e-08,6.5615e-07,4.6318e-05,-0.0024082,0.0019114,0.00049685,-2.265e-06,3.542e-05,0.00062095,1,1,1.38,1691.4,0,3000
-1.623e-13,-1.623e-13,-0.55151,42.567,41.582,3.0997,-0.0028523,0.043911,1.2512,42.972,0,0,0,83.598,1714,-1375.8,-0.77325,41.582,42.789,0.99745,-0.071338,-0.0010389,0.0010192,-0.00031179,1,-0.071338,-0.99745,-0.00023829,-0.0025565,0.0020853,0.00066339,0.00066727,-2.3076e-06,3.6076e-05,0.0027731,0.00019218,-5.7553e-06,-3.6111e-09,-0.0025805,0.00066349,0.0021092,0.99744,-0.071325,-0.0055718,0.0055509,-0.00049105,0.99998,-0.071327,-0.99745,-9.3873e-05,-0.00014826,0.0001739,0.00016654,-4.262e-08,6.5615e-07,4.6318e-05,-0.0024082,0.0019114,0.00049685,-2.265e-06,3.542e-05,0.00062095,1,1,1.4399,1691.4,0,3000
-1.7275e-13,-1.7275e-13,-0.55151,42.567,41.582,3.0997,-0.0028523,0.043911,1.2512,42.972,0,0,0,83.598,1714,-1375.8,-0.77325,41.582,42.789,0.99745,-0.071338,-0.0010389,0.0010192,-0.00031179,1,-0.071338,-0.99745,-0.00023829,-0.0025565,0.0020853,0.00066339,0.00066727,-2.3076e-06,3.6076e-05,0.0027731,0.00019218,-5.7553e-06,-3.6111e-09,-0.0025805,0.00066349,0.0021092,0.99744,-0.071325,-0.0055718,0.0055509,-0.00049105,0.99998,-0.071327,-0.99745,-9.3873e-05,-0.00014826,0.0001739,0.00016654,-4.262e-08,6.5615e-07,4.6318e-05,-0.0024082,0.0019114,0.00049685,-2.265e-06,3.542e-05,0.00062095,1,1,1.5,1691.5,0,3000
-1.8321e-13,-1.8321e-13,-0.55151,42.567,41.582,3.0997,-0.0028523,0.043911,1.2512,42.972,0,0,0,83.598,1714,-1375.8,-0.77325,41.582,42.789,0.99745,-0.071338,-0.0010389,0.0010192,-0.00031179,1,-0.071338,-0.99745,-0.00023829,-0.0025565,0.0020853,0.00066339,0.00066727,-2.3076e-06,3.6076e-05,0.0027731,0.00019218,-5.7553e-06,-3.6111e-09,-0.0025805,0.00066349,0.0021092,0.99744,-0.071325,-0.0055718,0.0055509,-0.00049105,0.99998,-0.071327,-0.99745,-9.3873e-05,-0.00014826,0.0001739,0.00016654,-4.262e-08,6.5615e-07,4.6318e-05,-0.0024082,0.0019114,0.00049685,-2.265e-06,3.542e-05,0.00062095,1,1,1.5601,1691.6,0,3000
-1.9364e-13,-1.9364e-13,-0.55151,42.567,41.582,3.0997,-0.0028523,0.043911,1.2512,42.972,0,0,0,83.598,1714,-1375.8,-0.77325,41.582,42.789,0.99745,-0.071338,-0.0010389,0.0010192,-0.00031179,1,-0.071338,-0.99745,-0.00023829,-0.0025565,0.0020853,0.00066339,0.00066727,-2.3076e-06,3.6076e-05,0.0027731,0.00019218,-5.7553e-06,-3.6111e-09,-0.0025805,0.00066349,0.0021092,0.99744,-0.071325,-0.0055718,0.0055509,-0.00049105,0.99998,-0.071327,-0.99745,-9.3873e-05,-0.00014826,0.0001739,0.00016654,-4.262e-08,6.5615e-07,4.6318e-05,-0.0024082,0.0019114,0.00049685,-2.265e-06,3.542e-05,0.00062095,1,1,1.62,1691.6,0,3000
-2.0409e-13,-2.0409e-13,-0.55151,42.567,41.582,3.0997,-0.0028523,0.043911,1.2512,42.972,0,0,0,83.598,1714,-1375.8,-0.77325,41.582,42.789,0.99745,-0.071338,-0.0010389,0.0010192,-0.00031179,1,-0.071338,-0.99745,-0.00023829,-0.0025565,0.0020853,0.00066339,0.00066727,-2.3076e-06,3.6076e-05,0.0027731,0.00019218,-5.7553e-06,-3.6111e-09,-0.0025805,0.00066349,0.0021092,0.99744,-0.071325,-0.0055718,0.0055509,-0.00049105,0.99998,-0.071327,-0.99745,-9.3873e-05,-0.00014826,0.0001739,0.00016654,-4.262e-08,6.5615e-07,4.6318e-05,-0.0024082,0.0019114,0.00049685,-2.265e-06,3.542e-05,0.00062095,1,1,1.6801,1691.7,0,3000
-2.1453e-13,-2.1453e-13,-0.55151,42.567,41.582,3.0997,-0.0028523,0.043911,1.2512,42.972,0,0,0,83.598,1714,-1375.8,-0.77325,41.582,42.789,0.99745,-0.071338,-0.0010389,0.0010192,-0.00031179,1,-0.071338,-0.99745,-0.00023829,-0.0025565,0.0020853,0.00066339,0.00066727,-2.3076e-06,3.6076e-05,0.0027731,0.00019218,-5.7553e-06,-3.6111e-09,-0.0025805,0.00066349,0.0021092,0.99744,-0.071325,-0.0055718,0.0055509,-0.00049105,0.99998,-0.071327,-0.99745,-9.3873e-05,-0.00014826,0.0001739,0.00016654,-4.262e-08,6.5615e-07,4.6318e-05,-0.0024082,0.0019114,0.00049685,-2.265e-06,3.542e-05,0.00062095,1,1,1.74,1691.7,0,3000
-2.2498e-13,-2.2498e-13,-0.55151,42.567,41.582,3.0997,-0.0028523,0.043911,1.2512,42.972,0,0,0,83.598,1714,-1375.8,-0.77325,41.582,42.789,0.99745,-0.071338,-0.0010389,0.0010192,-0.00031179,1,-0.071338,-0.99745,-0.00023829,-0.0025565,0.0020853,0.00066339,0.00066727,-2.3076e-06,3.6076e-05,0.0027731,0.00019218,-5.7553e-06,-3.6111e-09,-0.0025805,0.00066349,0.0021092,0.99744,-0.071325,-0.0055718,0.0055509,-0.00049105,0.99998,-0.071327,-0.99745,-9.3873e-05,-0.00014826,0.0001739,0.00016654,-4.262e-08,6.5615e-07,4.6318e-05,-0.0024082,0.0019114,0.00049685,-2.265e-06,3.542e-05,0.00062095,1,1,1.8,1691.8,0,3000
-2.3542e-13,-2.3542e-13,-0.55151,42.567,41.582,3.0997,-0.0028523,0.043911,1.2512,42.972,0,0,0,83.598,1714,-1375.8,-0.77325,41.582,42.789,0.99745,-0.071338,-0.0010389,0.0010192,-0.00031179,1,-0.071338,-0.99745,-0.00023829,-0.0025565,0.0020853,0.00066339,0.00066727,-2.3076e-06,3.6076e-05,0.0027731,0.00019218,-5.7553e-06,-3.6111e-09,-0.0025805,0.00066349,0.0021092,0.99744,-0.071325,-0.0055718,0.0055509,-0.00049105,0.99998,-0.071327,-0.99745,-9.3873e-05,-0.00014826,0.0001739,0.00016654,-4.262e-08,6.5615e-07,4.6318e-05,-0.0024082,0.0019114,0.00049685,-2.265e-06,3.542e-05,0.00062095,1,1,1.86,1691.9,0,3000
-2.4587e-13,-2.4587e-13,-0.55151,42.567,41.582,3.0997,-0.0028523,0.043911,1.2512,42.972,0,0,0,83.598,1714,-1375.8,-0.77325,41.582,42.789,0.99745,-0.071338,-0.0010389,0.0010192,-0.00031179,1,-0.071338,-0.99745,-0.00023829,-0.0025565,0.0020853,0.00066339,0.00066727,-2.3076e-06,3.6076e-05,0.0027731,0.00019218,-5.7553e-06,-3.6111e-09,-0.0025805,0.00066349,0.0021092,0.99744,-0.071325,-0.0055718,0.0055509,-0.00049105,0.99998,-0.071327,-0.99745,-9.3873e-05,-0.00014826,0.0001739,0.00016654,-4.262e-08,6.5615e-07,4.6318e-05,-0.0024082,0.0019114,0.00049685,-2.265e-06,3.542e-05,0.00062095,1,1,1.92,1691.9,0,3000
-2.5631e-13,-2.5631e-13,-0.55151,42.567,41.582,3.0997,-0.0028523,0.043911,1.2512,42.972,0,0,0,83.598,1714,-1375.8,-0.77325,41.582,42.789,0.99745,-0.071338,-0.0010389,0.0010192,-0.00031179,1,-0.071338,-0.99745,-0.00023829,-0.0025565,0.0020853,0.00066339,0.00066727,-2.3076e-06,3.6076e-05,0.0027731,0.00019218,-5.7553e-06,-3.6111e-09,-0.0025805,0.00066349,0.0021092,0.99744,-0.071325,-0.0055718,0.0055509,-0.00049105,0.99998,-0.071327,-0.99745,-9.3873e-05,-0.00014826,0.0001739,0.00016654,-4.262e-08,6.5615e-07,4.6318e-05,-0.0024082,0.0019114,0.00049685,-2.265e-06,3.542e-05,0.00062095,1,1,1.98,1692,0,3000
-2.5673e-13,-2.5673e-13,-0.52526,42.622,41.578,3.1017,-0.0023674,0.036446,1.1266,42.972,0,0,0,83.674,1718.3,-1330.9,-0.74712,41.578,42.844,0.99745,-0.071338,-0.0008629,0.00084725,-0.00024956,1,-0.071338,-0.99745,-0.00018848,-0.0025535,0.0020825,0.0006633,0.00066648,-2.071e-06,3.1999e-05,0.0027698,0.00019235,-5.7414e-06,-3.6015e-09,-0.0025774,0.00066338,0.0021064,0.99744,-0.07133,-0.0049472,0.0049292,-0.00042779,0.99999,-0.071331,-0.99745,-7.5095e-05,-0.00014819,0.00017417,0.00016637,-3.5374e-08,5.4459e-07,4.6348e-05,-0.0024053,0.0019084,0.00049693,-2.0357e-06,3.1454e-05,0.00062013,1,1,2.04,1692,0,3000
-2.5216e-13,-2.5216e-13,-0.52526,42.622,41.578,3.1017,-0.0023674,0.036446,1.1266,42.972,0,0,0,83.674,1718.3,-1330.9,-0.74712,41.578,42.844,0.99745,-0.071338,-0.0008629,0.00084725,-0.00024956,1,-0.071338,-0.99745,-0.00018848,-0.0025535,0.0020825,0.0006633,0.00066648,-2.071e-06,3.1999e-05,0.0027698,0.00019235,-5.7414e-06,-3.6015e-09,-0.0025774,0.00066338,0.0021064,0.99744,-0.07133,-0.0049472,0.0049292,-0.00042779,0.99999,-0.071331,-0.99745,-7.5095e-05,-0.00014819,0.00017417,0.00016637,-3.5374e-08,5.4459e-07,4.6348e-05,-0.0024053,0.0019084,0.00049693,-2.0357e-06,3.1454e-05,0.00062013,1,1,2.1,1692.1,0,3000
-2.4757e-13,-2.4757e-13,-0.52526,42.622,41.578,3.1017,-0.0023674,0.036446,1.1266,42.972,0,0,0,83.674,1718.3,-1330.9,-0.74712,41.578,42.844,0.99745,-0.071338,-0.0008629,0.00084725,-0.00024956,1,-0.071338,-0.99745,-0.00018848,-0.0025535,0.0020825,0.0006633,0.00066648,-2.071e-06,3.1999e-05,0.0027698,0.00019235,-5.7414e-06,-3.6015e-09,-0.0025774,0.00066338,0.0021064,0.99744,-0.07133,-0.0049472,0.0049292,-0.00042779,0.99999,-0.071331,-0.99745,-7.5095e-05,-0.00014819,0.00017417,0.00016637,-3.5374e-08,5.4459e-07,4.6348e-05,-0.0024053,0.0019084,0.00049693,-2.0357e-06,3.1454e-05,0.00062013,1,1,2.16,1692.2,0,3000
-2.4299e-13,-2.4299e-13,-0.52526,42.622,41.578,3.1017,-0.0023674,0.036446,1.1266,42.972,0,0,0,83.674,1718.3,-1330.9,-0.74712,41.578,42.844,0.99745,-0.071338,-0.0008629,0.00084725,-0.00024956,1,-0.071338,-0.99745,-0.00018848,-0.0025535,0.0020825,0.0006633,0.00066648,-2.071e-06,3.1999e-05,0.0027698,0.00019235,-5.7414e-06,-3.6015e-09,-0.0025774,0.00066338,0.0021064,0.99744,-0.07133,-0.0049472,0.0049292,-0.00042779,0.99999,-0.071331,-0.99745,-7.5095e-05,-0.00014819,0.00017417,0.00016637,-3.5374e-08,5.4459e-07,4.6348e-05,-0.0024053,0.0019084,0.00049693,-2.0357e-06,3.1454e-05,0.00062013,1,1,2.22,1692.2,0,3000
-2.384e-13,-2.384e-13,-0.52526,42.622,41.578,3.1017,-0.0023674,0.036446,1.1266,42.972,0,0,0,83.674,1718.3,-1330.9,-0.74712,41.578,42.844,0.99745,-0.071338,-0.0008629,0.00084725,-0.00024956,1,-0.071338,-0.99745,-0.00018848,-0.0025535,0.0020825,0.0006633,0.00066648,-2.071e-06,3.1999e-05,0.0027698,0.00019235,-5.7414e-06,-3.6015e-09,-0.0025774,0.00066338,0.0021064,0.99744,-0.07133,-0.0049472,0.0049292,-0.00042779,0.99999,-0.071331,-0.99745,-7.5095e-05,-0.00014819,0.00017417,0.00016637,-3.5374e-08,5.4459e-07,4.6348e-05,-0.0024053,0.0019084,0.00049693,-2.0357e-06,3.1454e-05,0.00062013,1,1,2.28,1692.3,0,3000
-2.3382e-13,-2.3382e-13,-0.52526,42.622,41.578,3.1017,-0.0023674,0.036446,1.1266,42.972,0,0,0,83.674,1718.3,-1330.9,-0.74712,41.578,42.844,0.99745,-0.071338,-0.0008629,0.00084725,-0.00024956,1,-0.071338,-0.99745,-0.00018848,-0.0025535,0.0020825,0.0006633,0.00066648,-2.071e-06,3.1999e-05,0.0027698,0.00019235,-5.7414e-06,-3.6015e-09,-0.0025774,0.00066338,0.0021064,0.99744,-0.07133,-0.0049472,0.0049292,-0.00042779,0.99999,-0.071331,-0.99745,-7.5095e-05,-0.00014819,0.00017417,0.00016637,-3.5374e-08,5.4459e-07,4.6348e-05,-0.0024053,0.0019084,0.00049693,-2.0357e-06,3.1454e-05,0.00062013,1,1,2.34,1692.3,0,3000
-2.2924e-13,-2.2924e-13,-0.52526,42.622,41.578,3.1017,-0.0023674,0.036446,1.1266,42.972,0,0,0,83.674,1718.3,-1330.9,-0.74712,41.578,42.844,0.99745,-0.071338,-0.0008629,0.00084725,-0.00024956,1,-0.071338,-0.99745,-0.00018848,-0.0025535,0.0020825,0.0006633,0.00066648,-2.071e-06,3.1999e-05,0.0027698,0.00019235,-5.7414e-06,-3.6015e-09,-0.0025774,0.00066338,0.0021064,0.99744,-0.07133,-0.0049472,0.0049292,-0.00042779,0.99999,-0.071331,-0.99745,-7.5095e-05,-0.00014819,0.00017417,0.00016637,-3.5374e-08,5.4459e-07,4.6348e-05,-0.0024053,0.0019084,0.00049693,-2.0357e-06,3.1454e-05,0.00062013,1,1,2.4,1692.4,0,3000
-2.2466e-13,-2.2466e-13,-0.52526,42.622,41.578,3.1017,-0.0023674,0.036446,1.1266,42.972,0,0,0,83.674,1718.3,-1330.9,-0.74712,41.578,42.844,0.99745,-0.071338,-0.0008629,0.00084725,-0.00024956,1,-0.071338,-0.99745,-0.00018848,-0.0025535,0.0020825,0.0006633,0.00066648,-2.071e-06,3.1999e-05,0.0027698,0.00019235,-5.7414e-06,-3.6015e-09,-0.0025774,0.00066338,0.0021064,0.99744,-0.07133,-0.0049472,0.0049292,-0.00042779,0.99999,-0.071331,-0.99745,-7.5095e-05,-0.00014819,0.00017417,0.00016637,-3.5374e-08,5.4459e-07,4.6348e-05,-0.0024053,0.0019084,0.00049693,-2.0357e-06,3.1454e-05,0.00062013,1,1,2.46,1692.5,0,3000
-2.2007e-13,-2.2007e-13,-0.52526,42.622,41.578,3.1017,-0.0023674,0.036446,1.1266,42.972,0,0,0,83.674,1718.3,-1330.9,-0.74712,41.578,42.844,0.99745,-0.071338,-0.0008629,0.00084725,-0.00024956,1,-0.071338,-0.99745,-0.00018848,-0.0025535,0.0020825,0.0006633,0.00066648,-2.071e-06,3.1999e-05,0.0027698,0.00019235,-5.7414e-06,-3.6015e-09,-0.0025774,0.00066338,0.0021064,0.99744,-0.07133,-0.0049472,0.0049292,-0.00042779,0.99999,-0.071331,-0.99745,-7.5095e-05,-0.00014819,0.00017417,0.00016637,-3.5374e-08,5.4459e-07,4.6348e-05,-0.0024053,0.0019084,0.00049693,-2.0357e-06,3.1454e-05,0.00062013,1,1,2.52,1692.5,0,3000
-2.1549e-13,-2.1549e-13,-0.52526,42.622,41.578,3.1017,-0.0023674,0.036446,1.1266,42.972,0,0,0,83.674,1718.3,-1330.9,-0.74712,41.578,42.844,0.99745,-0.071338,-0.0008629,0.00084725,-0.00024956,1,-0.071338,-0.99745,-0.00018848,-0.0025535,0.0020825,0.0006633,0.00066648,-2.071e-06,3.1999e-05,0.0027698,0.00019235,-5.7414e-06,-3.6015e-09,-0.0025774,0.00066338,0.0021064,0.99744,-0.07133,-0.0049472,0.0049292,-0.00042779,0.99999,-0.071331,-0.99745,-7.5095e-05,-0.00014819,0.00017417,0.00016637,-3.5374e-08,5.4459e-07,4.6348e-05,-0.0024053,0.0019084,0.00049693,-2.0357e-06,3.1454e-05,0.00062013,1,1,2.58,1692.6,0,3000
-2.1091e-13,-2.1091e-13,-0.52526,42.622,41.578,3.1017,-0.0023674,0.036446,1.1266,42.972,0,0,0,83.674,1718.3,-1330.9,-0.74712,41.578,42.844,0.99745,-0.071338,-0.0008629,0.00084725,-0.00024956,1,-0.071338,-0.99745,-0.00018848,-0.0025535,0.0020825,0.0006633,0.00066648,-2.071e-06,3.1999e-05,0.0027698,0.00019235,-5.7414e-06,-3.6015e-09,-0.0025774,0.00066338,0.0021064,0.99744,-0.07133,-0.0049472,0.0049292,-0.00042779,0.99999,-0.071331,-0.99745,-7.5095e-05,-0.00014819,0.00017417,0.00016637,-3.5374e-08,5.4459e-07,4.6348e-05,-0.0024053,0.0019084,0.00049693,-2.0357e-06,3.1454e-05,0.00062013,1,1,2.64,1692.6,0,3000
-2.0633e-13,-2.0633e-13,-0.52526,42.622,41.578,3.1017,-0.0023674,0.036446,1.1266,42.972,0,0,0,83.674,1718.3,-1330.9,-0.74712,41.578,42.844,0.99745,-0.071338,-0.0008629,0.00084725,-0.00024956,1,-0.071338,-0.99745,-0.00018848,-0.0025535,0.0020825,0.0006633,0.00066648,-2.071e-06,3.1999e-05,0.0027698,0.00019235,-5.7414e-06,-3.6015e-09,-0.0025774,0.00066338,0.0021064,0.99744,-0.07133,-0.0049472,0.0049292,-0.00042779,0.99999,-0.071331,-0.99745,-7.5095e-05,-0.00014819,0.00017417,0.00016637,-3.5374e-08,5.4459e-07,4.6348e-05,-0.0024053,0.0019084,0.00049693,-2.0357e-06,3.1454e-05,0.00062013,1,1,2.7,1692.7,0,3000
-2.0174e-13,-2.0174e-13,-0.52526,42.622,41.578,3.1017,-0.0023674,0.036446,1.1266,42.972,0,0,0,83.674,1718.3,-1330.9,-0.74712,41.578,42.844,0.99745,-0.071338,-0.0008629,0.00084725,-0.00024956,1,-0.071338,-0.99745,-0.00018848,-0.0025535,0.0020825,0.0006633,0.00066648,-2.071e-06,3.1999e-05,0.0027698,0.00019235,-5.7414e-06,-3.6015e-09,-0.0025774,0.00066338,0.0021064,0.99744,-0.07133,-0.0049472,0.0049292,-0.00042779,0.99999,-0.071331,-0.99745,-7.5095e-05,-0.00014819,0.00017417,0.00016637,-3.5374e-08,5.4459e-07,4.6348e-05,-0.0024053,0.0019084,0.00049693,-2.0357e-06,3.1454e-05,0.00062013,1,1,2.76,1692.8,0,3000
-1.9716e-13,-1.9716e-13,-0.52526,42.622,41.578,3.1017,-0.0023674,0.036446,1.1266,42.972,0,0,0,83.674,1718.3,-1330.9,-0.74712,41.578,42.844,0.99745,-0.071338,-0.0008629,0.00084725,-0.00024956,1,-0.071338,-0.99745,-0.00018848,-0.0025535,0.0020825,0.0006633,0.00066648,-2.071e-06,3.1999e-05,0.0027698,0.00019235,-5.7414e-06,-3.6015e-09,-0.0025774,0.00066338,0.0021064,0.99744,-0.07133,-0.0049472,0.0049292,-0.00042779,0.99999,-0.071331,-0.99745,-7.5095e-05,-0.00014819,0.00017417,0.00016637,-3.5374e-08,5.4459e-07,4.6348e-05,-0.0024053,0.0019084,0.00049693,-2.0357e-06,3.1454e-05,0.00062013,1,1,2.8199,1692.8,0,3000
-1.9257e-13,-1.9257e-13,-0.52526,42.622,41.578,3.1017,-0.0023674,0.036446,1.1266,42.972,0,0,0,83.674,1718.3,-1330.9,-0.74712,41.578,42.844,0.99745,-0.071338,-0.0008629,0.00084725,-0.00024956,1,-0.071338,-0.99745,-0.00018848,-0.0025535,0.0020825,0.0006633,0.00066648,-2.071e-06,3.1999e-05,0.0027698,0.00019235,-5.7414e-06,-3.6015e-09,-0.0025774,0.00066338,0.0021064,0.99744,-0.07133,-0.0049472,0.0049292,-0.00042779,0.99999,-0.071331,-0.99745,-7.5095e-05,-0.00014819,0.00017417,0.00016637,-3.5374e-08,5.4459e-07,4.6348e-05,-0.0024053,0.0019084,0.00049693,-2.0357e-06,3.1454e-05,0.00062013,1,1,2.88,1692.9,0,3000
-1.88e-13,-1.88e-13,-0.52526,42.622,41.578,3.1017,-0.0023674,0.036446,1.1266,42.972,0,0,0,83.674,1718.3,-1330.9,-0.74712,41.578,42.844,0.99745,-0.071338,-0.0008629,0.00084725,-0.00024956,1,-0.071338,-0.99745,-0.00018848,-0.0025535,0.0020825,0.0006633,0.00066648,-2.071e-06,3.1999e-05,0.0027698,0.00019235,-5.7414e-06,-3.6015e-09,-0.0025774,0.00066338,0.0021064,0.99744,-0.07133,-0.0049472,0.0049292,-0.00042779,0.99999,-0.071331,-0.99745,-7.5095e-05,-0.00014819,0.00017417,0.00016637,-3.5374e-08,5.4459e-07,4.6348e-05,-0.0024053,0.0019084,0.00049693,-2.0357e-06,3.1454e-05,0.00062013,1,1,2.9399,1692.9,0,3000
-1.8341e-13,-1.8341e-13,-0.52526,42.622,41.578,3.1017,-0.0023674,0.036446,1.1266,42.972,0,0,0,83.674,1718.3,-1330.9,-0.74712,41.578,42.844,0.99745,-0.071338,-0.0008629,0.00084725,-0.00024956,1,-0.071338,-0.99745,-0.00018848,-0.0025535,0.0020825,0.0006633,0.00066648,-2.071e-06,3.1999e-05,0.0027698,0.00019235,-5.7414e-06,-3.6015e-09,-0.0025774,0.00066338,0.0021064,0.99744,-0.07133,-0.0049472,0.0049292,-0.00042779,0.99999,-0.071331,-0.99745,-7.5095e-05,-0.00014819,0.00017417,0.00016637,-3.5374e-08,5.4459e-07,4.6348e-05,-0.0024053,0.0019084,0.00049693,-2.0357e-06,3.1454e-05,0.00062013,1,1,3,1693,0,3000
-1.6965e-13,-1.6965e-13,-0.12756,101.96,100.03,7.3391,-0.0025693,0.039689,2.0554,101.93,0,0,0,201.86,10120,-6689,-0.65248,100.03,102.49,0.99745,-0.071339,-0.00039502,0.00038622,-0.0001372,1,-0.071339,-0.99745,-0.0001093,-0.0022529,0.0020814,0.00066322,0.00062308,-1.6949e-06,2.6029e-05,0.002577,0.00049172,-4.9001e-06,-3.1747e-09,-0.0022752,0.00066327,0.0021037,0.99744,-0.071327,-0.0044383,0.0044228,-0.00037405,0.99999,-0.071328,-0.99745,-5.7629e-05,-0.00040221,0.00045508,0.00043885,-4.315e-08,6.6657e-07,0.00012326,-0.0018507,0.0016263,0.00022437,-1.6517e-06,2.5362e-05,0.00049982,1,1,3.0601,1693.1,0,3000
-1.5591e-13,-1.5591e-13,-0.12756,101.96,100.03,7.3391,-0.0025693,0.039689,2.0554,101.93,0,0,0,201.86,10120,-6689,-0.65248,100.03,102.49,0.99745,-0.071339,-0.00039502,0.00038622,-0.0001372,1,-0.071339,-0.99745,-0.0001093,-0.0022529,0.0020814,0.00066322,0.00062308,-1.6949e-06,2.6029e-05,0.002577,0.00049172,-4.9001e-06,-3.1747e-09,-0.0022752,0.00066327,0.0021037,0.99744,-0.071327,-0.0044383,0.0044228,-0.00037405,0.99999,-0.071328,-0.99745,-5.7629e-05,-0.00040221,0.00045508,0.00043885,-4.315e-08,6.6657e-07,0.00012326,-0.0018507,0.0016263,0.00022437,-1.6517e-06,2.5362e-05,0.00049982,1,1,3.12,1693.1,0,3000
-1.4215e-13,-1.4215e-13,-0.12756,101.96,100.03,7.3391,-0.0025693,0.039689,2.0554,101.93,0,0,0,201.86,10120,-6689,-0.65248,100.03,102.49,0.99745,-0.071339,-0.00039502,0.00038622,-0.0001372,1,-0.071339,-0.99745,-0.0001093,-0.0022529,0.0020814,0.00066322,0.00062308,-1.6949e-06,2.6029e-05,0.002577,0.00049172,-4.9001e-06,-3.1747e-09,-0.0022752,0.00066327,0.0021037,0.99744,-0.071327,-0.0044383,0.0044228,-0.00037405,0.99999,-0.071328,-0.99745,-5.7629e-05,-0.00040221,0.00045508,0.00043885,-4.315e-08,6.6657e-07,0.00012326,-0.0018507,0.0016263,0.00022437,-1.6517e-06,2.5362e-05,0.00049982,1,1,3.1801,1693.2,0,3000
-1.2842e-13,-1.2842e-13,-0.12756,101.96,100.03,7.3391,-0.0025693,0.039689,2.0554,101.93,0,0,0,201.86,10120,-6689,-0.65248,100.03,102.49,0.99745,-0.071339,-0.00039502,0.00038622,-0.0001372,1,-0.071339,-0.99745,-0.0001093,-0.0022529,0.0020814,0.00066322,0.00062308,-1.6949e-06,2.6029e-05,0.002577,0.00049172,-4.9001e-06,-3.1747e-09,-0.0022752,0.00066327,0.0021037,0.99744,-0.071327,-0.0044383,0.0044228,-0.00037405,0.99999,-0.071328,-0.99745,-5.7629e-05,-0.00040221,0.00045508,0.00043885,-4.315e-08,6.6657e-07,0.00012326,-0.0018507,0.0016263,0.00022437,-1.6517e-06,2.5362e-05,0.00049982,1,1,3.24,1693.2,0,3000
-1.1465e-13,-1.1465e-13,-0.12756,101.96,100.03,7.3391,-0.0025693,0.039689,2.0554,101.93,0,0,0,201.86,10120,-6689,-0.65248,100.03,102.49,0.99745,-0.071339,-0.00039502,0.00038622,-0.0001372,1,-0.071339,-0.99745,-0.0001093,-0.0022529,0.0020814,0.00066322,0.00062308,-1.6949e-06,2.6029e-05,0.002577,0.00049172,-4.9001e-06,-3.1747e-09,-0.0022752,0.00066327,0.0021037,0.99744,-0.071327,-0.0044383,0.0044228,-0.00037405,0.99999,-0.071328,-0.99745,-5.7629e-05,-0.00040221,0.00045508,0.00043885,-4.315e-08,6.6657e-07,0.00012326,-0.0018507,0.0016263,0.00022437,-1.6517e-06,2.5362e-05,0.00049982,1,1,3.3,1693.3,0,3000
-1.0092e-13,-1.0092e-13,-0.12756,101.96,100.03,7.3391,-0.0025693,0.039689,2.0554,101.93,0,0,0,201.86,10120,-6689,-0.65248,100.03,102.49,0.99745,-0.071339,-0.00039502,0.00038622,-0.0001372,1,-0.071339,-0.99745,-0.0001093,-0.0022529,0.0020814,0.00066322,0.00062308,-1.6949e-06,2.6029e-05,0.002577,0.00049172,-4.9001e-06,-3.1747e-09,-0.0022752,0.00066327,0.0021037,0.99744,-0.071327,-0.0044383,0.0044228,-0.00037405,0.99999,-0.071328,-0.99745,-5.7629e-05,-0.00040221,0.00045508,0.00043885,-4.315e-08,6.6657e-07,0.00012326,-0.0018507,0.0016263,0.00022437,-1.6517e-06,2.5362e-05,0.00049982,1,1,3.36,1693.4,0,3000
-8.7156e-14,-8.7156e-14,-0.12756,101.96,100.03,7.3391,-0.0025693,0.039689,2.0554,101.93,0,0,0,201.86,10120,-6689,-0.65248,100.03,102.49,0.99745,-0.071339,-0.00039502,0.00038622,-0.0001372,1,-0.071339,-0.99745,-0.0001093,-0.0022529,0.0020814,0.00066322,0.00062308,-1.6949e-06,2.6029e-05,0.002577,0.00049172,-4.9001e-06,-3.1747e-09,-0.0022752,0.00066327,0.0021037,0.99744,-0.071327,-0.0044383,0.0044228,-0.00037405,0.99999,-0.071328,-0.99745,-5.7629e-05,-0.00040221,0.00045508,0.00043885,-4.315e-08,6.6657e-07,0.00012326,-0.0018507,0.0016263,0.00022437,-1.6517e-06,2.5362e-05,0.00049982,1,1,3.42,1693.4,0,3000
-7.3421e-14,-7.3421e-14,-0.12756,101.96,100.03,7.3391,-0.0025693,0.039689,2.0554,101.93,0,0,0,201.86,10120,-6689,-0.65248,100.03,102.49,0.99745,-0.071339,-0.00039502,0.00038622,-0.0001372,1,-0.071339,-0.99745,-0.0001093,-0.0022529,0.0020814,0.00066322,0.00062308,-1.6949e-06,2.6029e-05,0.002577,0.00049172,-4.9001e-06,-3.1747e-09,-0.0022752,0.00066327,0.0021037,0.99744,-0.071327,-0.0044383,0.0044228,-0.00037405,0.99999,-0.071328,-0.99745,-5.7629e-05,-0.00040221,0.00045508,0.00043885,-4.315e-08,6.6657e-07,0.00012326,-0.0018507,0.0016263,0.00022437,-1.6517e-06,2.5362e-05,0.00049982,1,1,3.48,1693.5,0,3000
-5.9659e-14,-5.9659e-14,-0.12756,101.96,100.03,7.3391,-0.0025693,0.039689,2.0554,101.93,0,0,0,201.86,10120,-6689,-0.65248,100.03,102.49,0.99745,-0.071339,-0.00039502,0.00038622,-0.0001372,1,-0.071339,-0.99745,-0.0001093,-0.0022529,0.0020814,0.00066322,0.00062308,-1.6949e-06,2.6029e-05,0.002577,0.00049172,-4.9001e-06,-3.1747e-09,-0.0022752,0.00066327,0.0021037,0.99744,-0.071327,-0.0044383,0.0044228,-0.00037405,0.99999,-0.071328,-0.99745,-5.7629e-05,-0.00040221,0.00045508,0.00043885,-4.315e-08,6.6657e-07,0.00012326,-0.0018507,0.0016263,0.00022437,-1.6517e-06,2.5362e-05,0.00049982,1,1,3.54,1693.5,0,3000
-4.5924e-14,-4.5924e-14,-0.12756,101.96,100.03,7.3391,-0.0025693,0.039689,2.0554,101.93,0,0,0,201.86,10120,-6689,-0.65248,100.03,102.49,0.99745,-0.071339,-0.00039502,0.00038622,-0.0001372,1,-0.071339,-0.99745,-0.0001093,-0.0022529,0.0020814,0.00066322,0.00062308,-1.6949e-06,2.6029e-05,0.002577,0.00049172,-4.9001e-06,-3.1747e-09,-0.0022752,0.00066327,0.0021037,0.99744,-0.071327,-0.0044383,0.0044228,-0.00037405,0.99999,-0.071328,-0.99745,-5.7629e-05,-0.00040221,0.00045508,0.00043885,-4.315e-08,6.6657e-07,0.00012326,-0.0018507,0.0016263,0.00022437,-1.6517e-06,2.5362e-05,0.00049982,1,1,3.6,1693.6,0,3000
-3.2162e-14,-3.2162e-14,-0.12756,101.96,100.03,7.3391,-0.0025693,0.039689,2.0554,101.93,0,0,0,201.86,10120,-6689,-0.65248,100.03,102.49,0.99745,-0.071339,-0.00039502,0.00038622,-0.0001372,1,-0.071339,-0.99745,-0.0001093,-0.0022529,0.0020814,0.00066322,0.00062308,-1.6949e-06,2.6029e-05,0.002577,0.00049172,-4.9001e-06,-3.1747e-09,-0.0022752,0.00066327,0.0021037,0.99744,-0.071327,-0.0044383,0.0044228,-0.00037405,0.99999,-0.071328,-0.99745,-5.7629e-05,-0.00040221,0.00045508,0.00043885,-4.315e-08,6.6657e-07,0.00012326,-0.0018507,0.0016263,0.00022437,-1.6517e-06,2.5362e-05,0.00049982,1,1,3.66,1693.7,0,3000
-1.8428e-14,-1.8428e-14,-0.12756,101.96,100.03,7.3391,-0.0025693,0.039689,2.0554,101.93,0,0,0,201.86,10120,-6689,-0.65248,100.03,102.49,0.99745,-0.071339,-0.00039502,0.00038622,-0.0001372,1,-0.071339,-0.99745,-0.0001093,-0.0022529,0.0020814,0.00066322,0.00062308,-1.6949e-06,2.6029e-05,0.002577,0.00049172,-4.9001e-06,-3.1747e-09,-0.0022752,0.00066327,0.0021037,0.99744,-0.071327,-0.0044383,0.0044228,-0.00037405,0.99999,-0.071328,-0.99745,-5.7629e-05,-0.00040221,0.00045508,0.00043885,-4.315e-08,6.6657e-07,0.00012326,-0.0018507,0.0016263,0.00022437,-1.6517e-06,2.5362e-05,0.00049982,1,1,3.72,1693.7,0,3000
-4.6651e-15,-4.6651e-15,-0.12756,101.96,100.03,7.3391,-0.0025693,0.039689,2.0554,101.93,0,0,0,201.86,10120,-6689,-0.65248,100.03,102.49,0.99745,-0.071339,-0.00039502,0.00038622,-0.0001372,1,-0.071339,-0.99745,-0.0001093,-0.0022529,0.0020814,0.00066322,0.00062308,-1.6949e-06,2.6029e-05,0.002577,0.00049172,-4.9001e-06,-3.1747e-09,-0.0022752,0.00066327,0.0021037,0.99744,-0.071327,-0.0044383,0.0044228,-0.00037405,0.99999,-0.071328,-0.99745,-5.7629e-05,-0.00040221,0.00045508,0.00043885,-4.315e-08,6.6657e-07,0.00012326,-0.0018507,0.0016263,0.00022437,-1.6517e-06,2.5362e-05,0.00049982,1,1,3.78,1693.8,0,3000
9.0694e-15,9.0694e-15,-0.12756,101.96,100.03,7.3391,-0.0025693,0.039689,2.0554,101.93,0,0,0,201.86,10120,-6689,-0.65248,100.03,102.49,0.99745,-0.071339,-0.00039502,0.00038622,-0.0001372,1,-0.071339,-0.99745,-0.0001093,-0.0022529,0.0020814,0.00066322,0.00062308,-1.6949e-06,2.6029e-05,0.002577,0.00049172,-4.9001e-06,-3.1747e-09,-0.0022752,0.00066327,0.0021037,0.99744,-0.071327,-0.0044383,0.0044228,-0.00037405,0.99999,-0.071328,-0.99745,-5.7629e-05,-0.00040221,0.00045508,0.00043885,-4.315e-08,6.6657e-07,0.00012326,-0.0018507,0.0016263,0.00022437,-1.6517e-06,2.5362e-05,0.00049982,1,1,3.84,1693.8,0,3000
2.2832e-14,2.2832e-14,-0.12756,101.96,100.03,7.3391,-0.0025693,0.039689,2.0554,101.93,0,0,0,201.86,10120,-6689,-0.65248,100.03,102.49,0.99745,-0.071339,-0.00039502,0.00038622,-0.0001372,1,-0.071339,-0.99745,-0.0001093,-0.0022529,0.0020814,0.00066322,0.00062308,-1.6949e-06,2.6029e-05,0.002577,0.00049172,-4.9001e-06,-3.1747e-09,-0.0022752,0.00066327,0.0021037,0.99744,-0.071327,-0.0044383,0.0044228,-0.00037405,0.99999,-0.071328,-0.99745,-5.7629e-05,-0.00040221,0.00045508,0.00043885,-4.315e-08,6.6657e-07,0.00012326,-0.0018507,0.0016263,0.00022437,-1.6517e-06,2.5362e-05,0.00049982,1,1,3.9,1693.9,0,3000
3.6566e-14,3.6566e-14,-0.12756,101.96,100.03,7.3391,-0.0025693,0.039689,2.0554,101.93,0,0,0,201.86,10120,-6689,-0.65248,100.03,102.49,0.99745,-0.071339,-0.00039502,0.00038622,-0.0001372,1,-0.071339,-0.99745,-0.0001093,-0.0022529,0.0020814,0.00066322,0.00062308,-1.6949e-06,2.6029e-05,0.002577,0.00049172,-4.9001e-06,-3.1747e-09,-0.0022752,0.00066327,0.0021037,0.99744,-0.071327,-0.0044383,0.0044228,-0.00037405,0.99999,-0.071328,-0.99745,-5.7629e-05,-0.00040221,0.00045508,0.00043885,-4.315e-08,6.6657e-07,0.00012326,-0.0018507,0.0016263,0.00022437,-1.6517e-06,2.5362e-05,0.00049982,1,1,3.96,1694,0,3000
4.8026e-14,4.8026e-14,-0.065434,102.16,99.946,7.3486,-0.0019628,0.030325,1.7392,101.93,0,0,0,202.04,10143,-6065.5,-0.59103,99.946,102.68,0.99745,-0.071339,-0.00030226,0.00029613,-9.649e-05,1,-0.071339,-0.99745,-7.5118e-05,-0.0022498,0.0020788,0.00066313,0.00062228,-1.1872e-06,1.8202e-05,0.0025737,0.00049214,-4.8873e-06,-3.1658e-09,-0.0022721,0.00066316,0.0021011,0.99745,-0.071329,-0.0031071,0.0030964,-0.00026124,1,-0.07133,-0.99745,-3.9706e-05,-0.00040203,0.00045637,0.00043781,-3.2965e-08,5.0931e-07,0.00012342,-0.0018478,0.0016225,0.00022533,-1.1542e-06,1.7693e-05,0.00049886,1,1,4.02,1694,0,3000
5.4867e-14,5.4867e-14,-0.065434,102.16,99.946,7.3486,-0.0019628,0.030325,1.7392,101.93,0,0,0,202.04,10143,-6065.5,-0.59103,99.946,102.68,0.99745,-0.071339,-0.00030226,0.00029613,-9.649e-05,1,-0.071339,-0.99745,-7.5118e-05,-0.0022498,0.0020788,0.00066313,0.00062228,-1.1872e-06,1.8202e-05,0.0025737,0.00049214,-4.8873e-06,-3.1658e-09,-0.0022721,0.00066316,0.0021011,0.99745,-0.071329,-0.0031071,0.0030964,-0.00026124,1,-0.07133,-0.99745,-3.9706e-05,-0.00040203,0.00045637,0.00043781,-3.2965e-08,5.0931e-07,0.00012342,-0.0018478,0.0016225,0.00022533,-1.1542e-06,1.7693e-05,0.00049886,1,1,4.08,1694.1,0,3000
6.1721e-14,6.1721e-14,-0.065434,102.16,99.946,7.3486,-0.0019628,0.030325,1.7392,101.93,0,0,0,202.04,10143,-6065.5,-0.59103,99.946,102.68,0.99745,-0.071339,-0.00030226,0.00029613,-9.649e-05,1,-0.071339,-0.99745,-7.5118e-05,-0.0022498,0.0020788,0.00066313,0.00062228,-1.1872e-06,1.8202e-05,0.0025737,0.00049214,-4.8873e-06,-3.1658e-09,-0.0022721,0.00066316,0.0021011,0.99745,-0.071329,-0.0031071,0.0030964,-0.00026124,1,-0.07133,-0.99745,-3.9706e-05,-0.00040203,0.00045637,0.00043781,-3.2965e-08,5.0931e-07,0.00012342,-0.0018478,0.0016225,0.00022533,-1.1542e-06,1.7693e-05,0.00049886,1,1,4.14,1694.1,0,3000
6.8562e-14,6.8562e-14,-0.065434,102.16,99.946,7.3486,-0.0019628,0.030325,1.7392,101.93,0,0,0,202.04,10143,-6065.5,-0.59103,99.946,102.68,0.99745,-0.071339,-0.00030226,0.00029613,-9.649e-05,1,-0.071339,-0.99745,-7.5118e-05,-0.0022498,0.0020788,0.00066313,0.00062228,-1.1872e-06,1.8202e-05,0.0025737,0.00049214,-4.8873e-06,-3.1658e-09,-0.0022721,0.00066316,0.0021011,0.99745,-0.071329,-0.0031071,0.0030964,-0.00026124,1,-0.07133,-0.99745,-3.9706e-05,-0.00040203,0.00045637,0.00043781,-3.2965e-08,5.0931e-07,0.00012342,-0.0018478,0.0016225,0.00022533,-1.1542e-06,1.7693e-05,0.00049886,1,1,4.2,1694.2,0,3000
7.5416e-14,7.5416e-14,-0.065434,102.16,99.946,7.3486,-0.0019628,0.030325,1.7392,101.93,0,0,0,202.04,10143,-6065.5,-0.59103,99.946,102.68,0.99745,-0.071339,-0.00030226,0.00029613,-9.649e-05,1,-0.071339,-0.99745,-7.5118e-05,-0.0022498,0.0020788,0.00066313,0.00062228,-1.1872e-06,1.8202e-05,0.0025737,0.00049214,-4.8873e-06,-3.1658e-09,-0.0022721,0.00066316,0.0021011,0.99745,-0.071329,-0.0031071,0.0030964,-0.00026124,1,-0.07133,-0.99745,-3.9706e-05,-0.00040203,0.00045637,0.00043781,-3.2965e-08,5.0931e-07,0.00012342,-0.0018478,0.0016225,0.00022533,-1.1542e-06,1.7693e-05,0.00049886,1,1,4.26,1694.3,0,3000
8.2257e-14,8.2257e-14,-0.065434,102.16,99.946,7.3486,-0.0019628,0.030325,1.7392,101.93,0,0,0,202.04,10143,-6065.5,-0.59103,99.946,102.68,0.99745,-0.071339,-0.00030226,0.00029613,-9.649e-05,1,-0.071339,-0.99745,-7.5118e-05,-0.0022498,0.0020788,0.00066313,0.00062228,-1.1872e-06,1.8202e-05,0.0025737,0.00049214,-4.8873e-06,-3.1658e-09,-0.0022721,0.00066316,0.0021011,0.99745,-0.071329,-0.0031071,0.0030964,-0.00026124,1,-0.07133,-0.99745,-3.9706e-05,-0.00040203,0.00045637,0.00043781,-3.2965e-08,5.0931e-07,0.00012342,-0.0018478,0.0016225,0.00022533,-1.1542e-06,1.7693e-05,0.00049886,1,1,4.3199,1694.3,0,3000
8.9111e-14,8.9111e-14,-0.065434,102.16,99.946,7.3486,-0.0019628,0.030325,1.7392,101.93,0,0,0,202.04,10143,-6065.5,-0.59103,99.946,102.68,0.99745,-0.071339,-0.00030226,0.00029613,-9.649e-05,1,-0.071339,-0.99745,-7.5118e-05,-0.0022498,0.0020788,0.00066313,0.00062228,-1.1872e-06,1.8202e-05,0.0025737,0.00049214,-4.8873e-06,-3.1658e-09,-0.0022721,0.00066316,0.0021011,0.99745,-0.071329,-0.0031071,0.0030964,-0.00026124,1,-0.07133,-0.99745,-3.9706e-05,-0.00040203,0.00045637,0.00043781,-3.2965e-08,5.0931e-07,0.00012342,-0.0018478,0.0016225,0.00022533,-1.1542e-06,1.7693e-05,0.00049886,1,1,4.38,1694.4,0,3000
9.5952e-14,9.5952e-14,-0.065434,102.16,99.946,7.3486,-0.0019628,0.030325,1.7392,101.93,0,0,0,202.04,10143,-6065.5,-0.59103,99.946,102.68,0.99745,-0.071339,-0.00030226,0.00029613,-9.649e-05,1,-0.071339,-0.99745,-7.5118e-05,-0.0022498,0.0020788,0.00066313,0.00062228,-1.1872e-06,1.8202e-05,0.0025737,0.00049214,-4.8873e-06,-3.1658e-09,-0.0022721,0.00066316,0.0021011,0.99745,-0.071329,-0.0031071,0.0030964,-0.00026124,1,-0.07133,-0.99745,-3.9706e-05,-0.00040203,0.00045637,0.00043781,-3.2965e-08,5.0931e-07,0.00012342,-0.0018478,0.0016225,0.00022533,-1.1542e-06,1.7693e-05,0.00049886,1,1,4.4399,1694.4,0,3000
1.0281e-13,1.0281e-13,-0.065434,102.16,99.946,7.3486,-0.0019628,0.030325,1.7392,101.93,0,0,0,202.04,10143,-6065.5,-0.59103,99.946,102.68,0.99745,-0.071339,-0.00030226,0.00029613,-9.649e-05,1,-0.071339,-0.99745,-7.5118e-05,-0.0022498,0.0020788,0.00066313,0.00062228,-1.1872e-06,1.8202e-05,0.0025737,0.00049214,-4.8873e-06,-3.1658e-09,-0.0022721,0.00066316,0.0021011,0.99745,-0.071329,-0.0031071,0.0030964,-0.00026124,1,-0.07133,-0.99745,-3.9706e-05,-0.00040203,0.00045637,0.00043781,-3.2965e-08,5.0931e-07,0.00012342,-0.0018478,0.0016225,0.00022533,-1.1542e-06,1.7693e-05,0.00049886,1,1,4.5,1694.5,0,3000
1.0966e-13,1.0966e-13,-0.065434,102.16,99.946,7.3486,-0.0019628,0.030325,1.7392,101.93,0,0,0,202.04,10143,-6065.5,-0.59103,99.946,102.68,0.99745,-0.071339,-0.00030226,0.00029613,-9.649e-05,1,-0.071339,-0.99745,-7.5118e-05,-0.0022498,0.0020788,0.00066313,0.00062228,-1.1872e-06,1.8202e-05,0.0025737,0.00049214,-4.8873e-06,-3.1658e-09,-0.0022721,0.00066316,0.0021011,0.99745,-0.071329,-0.0031071,0.0030964,-0.00026124,1,-0.07133,-0.99745,-3.9706e-05,-0.00040203,0.00045637,0.00043781,-3.2965e-08,5.0931e-07,0.00012342,-0.0018478,0.0016225,0.00022533,-1.1542e-06,1.7693e-05,0.00049886,1,1,4.5601,1694.6,0,3000
1.165e-13,1.165e-13,-0.065434,102.16,99.946,7.3486,-0.0019628,0.030325,1.7392,101.93,0,0,0,202.04,10143,-6065.5,-0.59103,99.946,102.68,0.99745,-0.071339,-0.00030226,0.00029613,-9.649e-05,1,-0.071339,-0.99745,-7.5118e-05,-0.0022498,0.0020788,0.00066313,0.00062228,-1.1872e-06,1.8202e-05,0.0025737,0.00049214,-4.8873e-06,-3.1658e-09,-0.0022721,0.00066316,0.0021011,0.99745,-0.071329,-0.0031071,0.0030964,-0.00026124,1,-0.07133,-0.99745,-3.9706e-05,-0.00040203,0.00045637,0.00043781,-3.2965e-08,5.0931e-07,0.00012342,-0.0018478,0.0016225,0.00022533,-1.1542e-06,1.7693e-05,0.00049886,1,1,4.62,1694.6,0,3000
1.2336e-13,1.2336e-13,-0.065434,102.16,99.946,7.3486,-0.0019628,0.030325,1.7392,101.93,0,0,0,202.04,10143,-6065.5,-0.59103,99.946,102.68,0.99745,-0.071339,-0.00030226,0.00029613,-9.649e-05,1,-0.071339,-0.99745,-7.5118e-05,-0.0022498,0.0020788,0.00066313,0.00062228,-1.1872e-06,1.8202e-05,0.0025737,0.00049214,-4.8873e-06,-3.1658e-09,-0.0022721,0.00066316,0.0021011,0.99745,-0.071329,-0.0031071,0.0030964,-0.00026124,1,-0.07133,-0.99745,-3.9706e-05,-0.00040203,0.00045637,0.00043781,-3.2965e-08,5.0931e-07,0.00012342,-0.0018478,0.0016225,0.00022533,-1.1542e-06,1.7693e-05,0.00049886,1,1,4.6801,1694.7,0,3000
1.302e-13,1.302e-13,-0.065434,102.16,99.946,7.3486,-0.0019628,0.030325,1.7392,101.93,0,0,0,202.04,10143,-6065.5,-0.59103,99.946,102.68,0.99745,-0.071339,-0.00030226,0.00029613,-9.649e-05,1,-0.071339,-0.99745,-7.5118e-05,-0.0022498,0.0020788,0.00066313,0.00062228,-1.1872e-06,1.8202e-05,0.0025737,0.00049214,-4.8873e-06,-3.1658e-09,-0.0022721,0.00066316,0.0021011,0.99745,-0.071329,-0.0031071,0.0030964,-0.00026124,1,-0.07133,-0.99745,-3.9706e-05,-0.00040203,0.00045637,0.00043781,-3.2965e-08,5.0931e-07,0.00012342,-0.0018478,0.0016225,0.00022533,-1.1542e-06,1.7693e-05,0.00049886,1,1,4.74,1694.7,0,3000
1.3705e-13,1.3705e-13,-0.065434,102.16,99.946,7.3486,-0.0019628,0.030325,1.7392,101.93,0,0,0,202.04,10143,-6065.5,-0.59103,99.946,102.68,0.99745,-0.071339,-0.00030226,0.00029613,-9.649e-05,1,-0.071339,-0.99745,-7.5118e-05,-0.0022498,0.0020788,0.00066313,0.00062228,-1.1872e-06,1.8202e-05,0.0025737,0.00049214,-4.8873e-06,-3.1658e-09,-0.0022721,0.00066316,0.0021011,0.99745,-0.071329,-0.0031071,0.0030964,-0.00026124,1,-0.07133,-0.99745,-3.9706e-05,-0.00040203,0.00045637,0.00043781,-3.2965e-08,5.0931e-07,0.00012342,-0.0018478,0.0016225,0.00022533,-1.1542e-06,1.7693e-05,0.00049886,1,1,4.8,1694.8,0,3000
1.4389e-13,1.4389e-13,-0.065434,102.16,99.946,7.3486,-0.0019628,0.030325,1.7392,101.93,0,0,0,202.04,10143,-6065.5,-0.59103,99.946,102.68,0.99745,-0.071339,-0.00030226,0.00029613,-9.649e-05,1,-0.071339,-0.99745,-7.5118e-05,-0.0022498,0.0020788,0.00066313,0.00062228,-1.1872e-06,1.8202e-05,0.0025737,0.00049214,-4.8873e-06,-3.1658e-09,-0.0022721,0.00066316,0.0021011,0.99745,-0.071329,-0.0031071,0.0030964,-0.00026124,1,-0.07133,-0.99745,-3.9706e-05,-0.00040203,0.00045637,0.00043781,-3.2965e-08,5.0931e-07,0.00012342,-0.0018478,0.0016225,0.00022533,-1.1542e-06,1.7693e-05,0.00049886,1,1,4.86,1694.9,0,3000
1.5075e-13,1.5075e-13,-0.065434,102.16,99.946,7.3486,-0.0019628,0.030325,1.7392,101.93,0,0,0,202.04,10143,-6065.5,-0.59103,99.946,102.68,0.99745,-0.071339,-0.00030226,0.00029613,-9.649e-05,1,-0.071339,-0.99745,-7.5118e-05,-0.0022498,0.0020788,0.00066313,0.00062228,-1.1872e-06,1.8202e-05,0.0025737,0.00049214,-4.8873e-06,-3.1658e-09,-0.0022721,0.00066316,0.0021011,0.99745,-0.071329,-0.0031071,0.0030964,-0.00026124,1,-0.07133,-0.99745,-3.9706e-05,-0.00040203,0.00045637,0.00043781,-3.2965e-08,5.0931e-07,0.00012342,-0.0018478,0.0016225,0.00022533,-1.1542e-06,1.7693e-05,0.00049886,1,1,4.92,1694.9,0,3000
1.5759e-13,1.5759e-13,-0.065434,102.16,99.946,7.3486,-0.0019628,0.030325,1.7392,101.93,0,0,0,202.04,10143,-6065.5,-0.59103,99.946,102.68,0.99745,-0.071339,-0.00030226,0.00029613,-9.649e-05,1,-0.071339,-0.99745,-7.5118e-05,-0.0022498,0.0020788,0.00066313,0.00062228,-1.1872e-06,1.8202e-05,0.0025737,0.00049214,-4.8873e-06,-3.1658e-09,-0.0022721,0.00066316,0.0021011,0.99745,-0.071329,-0.0031071,0.0030964,-0.00026124,1,-0.07133,-0.99745,-3.9706e-05,-0.00040203,0.00045637,0.00043781,-3.2965e-08,5.0931e-07,0.00012342,-0.0018478,0.0016225,0.00022533,-1.1542e-06,1.7693e-05,0.00049886,1,1,4.98,1695,0,3000
1.5704e-13,1.5704e-13,-0.0029419,102.41,99.798,7.3623,-0.0014608,0.022621,1.4408,101.93,0,0,0,202.2,10165,-5439.5,-0.52951,99.798,102.94,0.99745,-0.071339,-0.00022594,0.0002218,-6.5922e-05,1,-0.071339,-0.99745,-4.9931e-05,-0.0022468,0.0020763,0.00066305,0.00062148,-7.9808e-07,1.2225e-05,0.0025704,0.00049255,-4.8745e-06,-3.1571e-09,-0.002269,0.00066306,0.0020985,0.99745,-0.071331,-0.0020892,0.002082,-0.00017543,1,-0.071331,-0.99745,-2.6477e-05,-0.00040184,0.00045816,0.00043623,-2.4534e-08,3.7992e-07,0.00012365,-0.0018449,0.0016181,0.00022682,-7.7354e-07,1.1846e-05,0.00049783,1,1,5.04,1695,0,3000
1.5281e-13,1.5281e-13,-0.0029419,102.41,99.798,7.3623,-0.0014608,0.022621,1.4408,101.93,0,0,0,202.2,10165,-5439.5,-0.52951,99.798,102.94,0.99745,-0.071339,-0.00022594,0.0002218,-6.5922e-05,1,-0.071339,-0.99745,-4.9931e-05,-0.0022468,0.0020763,0.00066305,0.00062148,-7.9808e-07,1.2225e-05,0.0025704,0.00049255,-4.8745e-06,-3.1571e-09,-0.002269,0.00066306,0.0020985,0.99745,-0.071331,-0.0020892,0.002082,-0.00017543,1,-0.071331,-0.99745,-2.6477e-05,-0.00040184,0.00045816,0.00043623,-2.4534e-08,3.7992e-07,0.00012365,-0.0018449,0.0016181,0.00022682,-7.7354e-07,1.1846e-05,0.00049783,1,1,5.1,1695.1,0,3000
1.4857e-13,1.4857e-13,-0.0029419,102.41,99.798,7.3623,-0.0014608,0.022621,1.4408,101.93,0,0,0,202.2,10165,-5439.5,-0.52951,99.798,102.94,0.99745,-0.071339,-0.00022594,0.0002218,-6.5922e-05,1,-0.071339,-0.99745,-4.9931e-05,-0.0022468,0.0020763,0.00066305,0.00062148,-7.9808e-07,1.2225e-05,0.0025704,0.00049255,-4.8745e-06,-3.1571e-09,-0.002269,0.00066306,0.0020985,0.99745,-0.071331,-0.0020892,0.002082,-0.00017543,1,-0.071331,-0.99745,-2.6477e-05,-0.00040184,0.00045816,0.00043623,-2.4534e-08,3.7992e-07,0.00012365,-0.0018449,0.0016181,0.00022682,-7.7354e-07,1.1846e-05,0.00049783,1,1,5.16,1695.2,0,3000
1.4434e-13,1.4434e-13,-0.0029419,102.41,99.798,7.3623,-0.0014608,0.022621,1.4408,101.93,0,0,0,202.2,10165,-5439.5,-0.52951,99.798,102.94,0.99745,-0.071339,-0.00022594,0.0002218,-6.5922e-05,1,-0.071339,-0.99745,-4.9931e-05,-0.0022468,0.0020763,0.00066305,0.00062148,-7.9808e-07,1.2225e-05,0.0025704,0.00049255,-4.8745e-06,-3.1571e-09,-0.002269,0.00066306,0.0020985,0.99745,-0.071331,-0.0020892,0.002082,-0.00017543,1,-0.071331,-0.99745,-2.6477e-05,-0.00040184,0.00045816,0.00043623,-2.4534e-08,3.7992e-07,0.00012365,-0.0018449,0.0016181,0.00022682,-7.7354e-07,1.1846e-05,0.00049783,1,1,5.22,1695.2,0,3000
1.401e-13,1.401e-13,-0.0029419,102.41,99.798,7.3623,-0.0014608,0.022621,1.4408,101.93,0,0,0,202.2,10165,-5439.5,-0.52951,99.798,102.94,0.99745,-0.071339,-0.00022594,0.0002218,-6.5922e-05,1,-0.071339,-0.99745,-4.9931e-05,-0.0022468,0.0020763,0.00066305,0.00062148,-7.9808e-07,1.2225e-05,0.0025704,0.00049255,-4.8745e-06,-3.1571e-09,-0.002269,0.00066306,0.0020985,0.99745,-0.071331,-0.0020892,0.002082,-0.00017543,1,-0.071331,-0.99745,-2.6477e-05,-0.00040184,0.00045816,0.00043623,-2.4534e-08,3.7992e-07,0.00012365,-0.0018449,0.0016181,0.00022682,-7.7354e-07,1.1846e-05,0.00049783,1,1,5.28,1695.3,0,3000
1.3587e-13,1.3587e-13,-0.0029419,102.41,99.798,7.3623,-0.0014608,0.022621,1.4408,101.93,0,0,0,202.2,10165,-5439.5,-0.52951,99.798,102.94,0.99745,-0.071339,-0.00022594,0.0002218,-6.5922e-05,1,-0.071339,-0.99745,-4.9931e-05,-0.0022468,0.0020763,0.00066305,0.00062148,-7.9808e-07,1.2225e-05,0.0025704,0.00049255,-4.8745e-06,-3.1571e-09,-0.002269,0.00066306,0.0020985,0.99745,-0.071331,-0.0020892,0.002082,-0.00017543,1,-0.071331,-0.99745,-2.6477e-05,-0.00040184,0.00045816,0.00043623,-2.4534e-08,3.7992e-07,0.00012365,-0.0018449,0.0016181,0.00022682,-7.7354e-07,1.1846e-05,0.00049783,1,1,5.34,1695.3,0,3000
1.3163e-13,1.3163e-13,-0.0029419,102.41,99.798,7.3623,-0.0014608,0.022621,1.4408,101.93,0,0,0,202.2,10165,-5439.5,-0.52951,99.798,102.94,0.99745,-0.071339,-0.00022594,0.0002218,-6.5922e-05,1,-0.071339,-0.99745,-4.9931e-05,-0.0022468,0.0020763,0.00066305,0.00062148,-7.9808e-07,1.2225e-05,0.0025704,0.00049255,-4.8745e-06,-3.1571e-09,-0.002269,0.00066306,0.0020985,0.99745,-0.071331,-0.0020892,0.002082,-0.00017543,1,-0.071331,-0.99745,-2.6477e-05,-0.00040184,0.00045816,0.00043623,-2.4534e-08,3.7992e-07,0.00012365,-0.0018449,0.0016181,0.00022682,-7.7354e-07,1.1846e-05,0.00049783,1,1,5.4,1695.4,0,3000
1.2739e-13,1.2739e-13,-0.0029419,102.41,99.798,7.3623,-0.0014608,0.022621,1.4408,101.93,0,0,0,202.2,10165,-5439.5,-0.52951,99.798,102.94,0.99745,-0.071339,-0.00022594,0.0002218,-6.5922e-05,1,-0.071339,-0.99745,-4.9931e-05,-0.0022468,0.0020763,0.00066305,0.00062148,-7.9808e-07,1.2225e-05,0.0025704,0.00049255,-4.8745e-06,-3.1571e-09,-0.002269,0.00066306,0.0020985,0.99745,-0.071331,-0.0020892,0.002082,-0.00017543,1,-0.071331,-0.99745,-2.6477e-05,-0.00040184,0.00045816,0.00043623,-2.4534e-08,3.7992e-07,0.00012365,-0.0018449,0.0016181,0.00022682,-7.7354e-07,1.1846e-05,0.00049783,1,1,5.46,1695.5,0,3000
1.2315e-13,1.2315e-13,-0.0029419,102.41,99.798,7.3623,-0.0014608,0.022621,1.4408,101.93,0,0,0,202.2,10165,-5439.5,-0.52951,99.798,102.94,0.99745,-0.071339,-0.00022594,0.0002218,-6.5922e-05,1,-0.071339,-0.99745,-4.9931e-05,-0.0022468,0.0020763,0.00066305,0.00062148,-7.9808e-07,1.2225e-05,0.0025704,0.00049255,-4.8745e-06,-3.1571e-09,-0.002269,0.00066306,0.0020985,0.99745,-0.071331,-0.0020892,0.002082,-0.00017543,1,-0.071331,-0.99745,-2.6477e-05,-0.00040184,0.00045816,0.00043623,-2.4534e-08,3.7992e-07,0.00012365,-0.0018449,0.0016181,0.00022682,-7.7354e-07,1.1846e-05,0.00049783,1,1,5.52,1695.5,0,3000
1.1892e-13,1.1892e-13,-0.0029419,102.41,99.798,7.3623,-0.0014608,0.022621,1.4408,101.93,0,0,0,202.2,10165,-5439.5,-0.52951,99.798,102.94,0.99745,-0.071339,-0.00022594,0.0002218,-6.5922e-05,1,-0.071339,-0.99745,-4.9931e-05,-0.0022468,0.0020763,0.00066305,0.00062148,-7.9808e-07,1.2225e-05,0.0025704,0.00049255,-4.8745e-06,-3.1571e-09,-0.002269,0.00066306,0.0020985,0.99745,-0.071331,-0.0020892,0.002082,-0.00017543,1,-0.071331,-0.99745,-2.6477e-05,-0.00040184,0.00045816,0.00043623,-2.4534e-08,3.7992e-07,0.00012365,-0.0018449,0.0016181,0.00022682,-7.7354e-07,1.1846e-05,0.00049783,1,1,5.58,1695.6,0,3000
1.1468e-13,1.1468e-13,-0.0029419,102.41,99.798,7.3623,-0.0014608,0.022621,1.4408,101.93,0,0,0,202.2,10165,-5439.5,-0.52951,99.798,102.94,0.99745,-0.071339,-0.00022594,0.0002218,-6.5922e-05,1,-0.071339,-0.99745,-4.9931e-05,-0.0022468,0.0020763,0.00066305,0.00062148,-7.9808e-07,1.2225e-05,0.0025704,0.00049255,-4.8745e-06,-3.1571e-09,-0.002269,0.00066306,0.0020985,0.99745,-0.071331,-0.0020892,0.002082,-0.00017543,1,-0.071331,-0.99745,-2.6477e-05,-0.00040184,0.00045816,0.00043623,-2.4534e-08,3.7992e-07,0.00012365,-0.0018449,0.0016181,0.00022682,-7.7354e-07,1.1846e-05,0.00049783,1,1,5.64,1695.6,0,3000
1.1045e-13,1.1045e-13,-0.0029419,102.41,99.798,7.3623,-0.0014608,0.022621,1.4408,101.93,0,0,0,202.2,10165,-5439.5,-0.52951,99.798,102.94,0.99745,-0.071339,-0.00022594,0.0002218,-6.5922e-05,1,-0.071339,-0.99745,-4.9931e-05,-0.0022468,0.0020763,0.00066305,0.00062148,-7.9808e-07,1.2225e-05,0.0025704,0.00049255,-4.8745e-06,-3.1571e-09,-0.002269,0.00066306,0.0020985,0.99745,-0.071331,-0.0020892,0.002082,-0.00017543,1,-0.071331,-0.99745,-2.6477e-05,-0.00040184,0.00045816,0.00043623,-2.4534e-08,3.7992e-07,0.00012365,-0.0018449,0.0016181,0.00022682,-7.7354e-07,1.1846e-05,0.00049783,1,1,5.7,1695.7,0,3000
1.0621e-13,1.0621e-13,-0.0029419,102.41,99.798,7.3623,-0.0014608,0.022621,1.4408,101.93,0,0,0,202.2,10165,-5439.5,-0.52951,99.798,102.94,0.99745,-0.071339,-0.00022594,0.0002218,-6.5922e-05,1,-0.071339,-0.99745,-4.9931e-05,-0.0022468,0.0020763,0.00066305,0.00062148,-7.9808e-07,1.2225e-05,0.0025704,0.00049255,-4.8745e-06,-3.1571e-09,-0.002269,0.00066306,0.0020985,0.99745,-0.071331,-0.0020892,0.002082,-0.00017543,1,-0.071331,-0.99745,-2.6477e-05,-0.00040184,0.00045816,0.00043623,-2.4534e-08,3.7992e-07,0.00012365,-0.0018449,0.0016181,0.00022682,-7.7354e-07,1.1846e-05,0.00049783,1,1,5.76,1695.8,0,3000
1.0198e-13,1.0198e-13,-0.0029419,102.41,99.798,7.3623,-0.0014608,0.022621,1.4408,101.93,0,0,0,202.2,10165,-5439.5,-0.52951,99.798,102.94,0.99745,-0.071339,-0.00022594,0.0002218,-6.5922e-05,1,-0.071339,-0.99745,-4.9931e-05,-0.0022468,0.0020763,0.00066305,0.00062148,-7.9808e-07,1.2225e-05,0.0025704,0.00049255,-4.8745e-06,-3.1571e-09,-0.002269,0.00066306,0.0020985,0.99745,-0.071331,-0.0020892,0.002082,-0.00017543,1,-0.071331,-0.99745,-2.6477e-05,-0.00040184,0.00045816,0.00043623,-2.4534e-08,3.7992e-07,0.00012365,-0.0018449,0.0016181,0.00022682,-7.7354e-07,1.1846e-05,0.00049783,1,1,5.8199,1695.8,0,3000
9.7735e-14,9.7735e-14,-0.0029419,102.41,99.798,7.3623,-0.0014608,0.022621,1.4408,101.93,0,0,0,202.2,10165,-5439.5,-0.52951,99.798,102.94,0.99745,-0.071339,-0.00022594,0.0002218,-6.5922e-05,1,-0.071339,-0.99745,-4.9931e-05,-0.0022468,0.0020763,0.00066305,0.00062148,-7.9808e-07,1.2225e-05,0.0025704,0.00049255,-4.8745e-06,-3.1571e-09,-0.002269,0.00066306,0.0020985,0.99745,-0.071331,-0.0020892,0.002082,-0.00017543,1,-0.071331,-0.99745,-2.6477e-05,-0.00040184,0.00045816,0.00043623,-2.4534e-08,3.7992e-07,0.00012365,-0.0018449,0.0016181,0.00022682,-7.7354e-07,1.1846e-05,0.00049783,1,1,5.88,1695.9,0,3000
9.3503e-14,9.3503e-14,-0.0029419,102.41,99.798,7.3623,-0.0014608,0.022621,1.4408,101.93,0,0,0,202.2,10165,-5439.5,-0.52951,99.798,102.94,0.99745,-0.071339,-0.00022594,0.0002218,-6.5922e-05,1,-0.071339,-0.99745,-4.9931e-05,-0.0022468,0.0020763,0.00066305,0.00062148,-7.9808e-07,1.2225e-05,0.0025704,0.00049255,-4.8745e-06,-3.1571e-09,-0.002269,0.00066306,0.0020985,0.99745,-0.071331,-0.0020892,0.002082,-0.00017543,1,-0.071331,-0.99745,-2.6477e-05,-0.00040184,0.00045816,0.00043623,-2.4534e-08,3.7992e-07,0.00012365,-0.0018449,0.0016181,0.00022682,-7.7354e-07,1.1846e-05,0.00049783,1,1,5.9399,1695.9,0,3000
8.9262e-14,8.9262e-14,-0.0029419,102.41,99.798,7.3623,-0.0014608,0.022621,1.4408,101.93,0,0,0,202.2,10165,-5439.5,-0.52951,99.798,102.94,0.99745,-0.071339,-0.00022594,0.0002218,-6.5922e-05,1,-0.071339,-0.99745,-4.9931e-05,-0.0022468,0.0020763,0.00066305,0.00062148,-7.9808e-07,1.2225e-05,0.0025704,0.00049255,-4.8745e-06,-3.1571e-09,-0.002269,0.00066306,0.0020985,0.99745,-0.071331,-0.0020892,0.002082,-0.00017543,1,-0.071331,-0.99745,-2.6477e-05,-0.00040184,0.00045816,0.00043623,-2.4534e-08,3.7992e-07,0.00012365,-0.0018449,0.0016181,0.00022682,-7.7354e-07,1.1846e-05,0.00049783,1,1,6,1696,0,3000
9.5983e-14,9.5983e-14,0.060219,102.76,99.54,7.3828,-0.0010443,0.016256,1.1633,101.93,0,0,0,202.36,10186,-4809.5,-0.4678,99.54,103.29,0.99745,-0.071339,-0.00016288,0.00016022,-4.306e-05,1,-0.071339,-0.99745,-3.152e-05,-0.0022437,0.0020737,0.00066296,0.00062069,-5.0405e-07,7.7252e-06,0.0025672,0.00049292,-4.8619e-06,-3.1485e-09,-0.0022659,0.00066297,0.0020959,0.99745,-0.071332,-0.0013216,0.001317,-0.00011108,1,-0.071332,-0.99745,-1.685e-05,-0.00040162,0.00046078,0.00043376,-1.7539e-08,2.7302e-07,0.00012399,-0.0018421,0.0016129,0.00022921,-4.8651e-07,7.4522e-06,0.0004967,1,1,6.0601,1696.1,0,3000
1.0269e-13,1.0269e-13,0.060219,102.76,99.54,7.3828,-0.0010443,0.016256,1.1633,101.93,0,0,0,202.36,10186,-4809.5,-0.4678,99.54,103.29,0.99745,-0.071339,-0.00016288,0.00016022,-4.306e-05,1,-0.071339,-0.99745,-3.152e-05,-0.0022437,0.0020737,0.00066296,0.00062069,-5.0405e-07,7.7252e-06,0.0025672,0.00049292,-4.8619e-06,-3.1485e-09,-0.0022659,0.00066297,0.0020959,0.99745,-0.071332,-0.0013216,0.001317,-0.00011108,1,-0.071332,-0.99745,-1.685e-05,-0.00040162,0.00046078,0.00043376,-1.7539e-08,2.7302e-07,0.00012399,-0.0018421,0.0016129,0.00022921,-4.8651e-07,7.4522e-06,0.0004967,1,1,6.12,1696.1,0,3000
1.0941e-13,1.0941e-13,0.060219,102.76,99.54,7.3828,-0.0010443,0.016256,1.1633,101.93,0,0,0,202.36,10186,-4809.5,-0.4678,99.54,103.29,0.99745,-0.071339,-0.00016288,0.00016022,-4.306e-05,1,-0.071339,-0.99745,-3.152e-05,-0.0022437,0.0020737,0.00066296,0.00062069,-5.0405e-07,7.7252e-06,0.0025672,0.00049292,-4.8619e-06,-3.1485e-09,-0.0022659,0.00066297,0.0020959,0.99745,-0.071332,-0.0013216,0.001317,-0.00011108,1,-0.071332,-0.99745,-1.685e-05,-0.00040162,0.00046078,0.00043376,-1.7539e-08,2.7302e-07,0.00012399,-0.0018421,0.0016129,0.00022921,-4.8651e-07,7.4522e-06,0.0004967,1,1,6.1801,1696.2,0,3000
1.1612e-13,1.1612e-13,0.060219,102.76,99.54,7.3828,-0.0010443,0.016256,1.1633,101.93,0,0,0,202.36,10186,-4809.5,-0.4678,99.54,103.29,0.99745,-0.071339,-0.00016288,0.00016022,-4.306e-05,1,-0.071339,-0.99745,-3.152e-05,-0.0022437,0.0020737,0.00066296,0.00062069,-5.0405e-07,7.7252e-06,0.0025672,0.00049292,-4.8619e-06,-3.1485e-09,-0.0022659,0.00066297,0.0020959,0.99745,-0.071332,-0.0013216,0.001317,-0.00011108,1,-0.071332,-0.99745,-1.685e-05,-0.00040162,0.00046078,0.00043376,-1.7539e-08,2.7302e-07,0.00012399,-0.0018421,0.0016129,0.00022921,-4.8651e-07,7.4522e-06,0.0004967,1,1,6.24,1696.2,0,3000
1.2284e-13,1.2284e-13,0.060219,102.76,99.54,7.3828,-0.0010443,0.016256,1.1633,101.93,0,0,0,202.36,10186,-4809.5,-0.4678,99.54,103.29,0.99745,-0.071339,-0.00016288,0.00016022,-4.306e-05,1,-0.071339,-0.99745,-3.152e-05,-0.0022437,0.0020737,0.00066296,0.00062069,-5.0405e-07,7.7252e-06,0.0025672,0.00049292,-4.8619e-06,-3.1485e-09,-0.0022659,0.00066297,0.0020959,0.99745,-0.071332,-0.0013216,0.001317,-0.00011108,1,-0.071332,-0.99745,-1.685e-05,-0.00040162,0.00046078,0.00043376,-1.7539e-08,2.7302e-07,0.00012399,-0.0018421,0.0016129,0.00022921,-4.8651e-07,7.4522e-06,0.0004967,1,1,6.3,1696.3,0,3000
1.2955e-13,1.2955e-13,0.060219,102.76,99.54,7.3828,-0.0010443,0.016256,1.1633,101.93,0,0,0,202.36,10186,-4809.5,-0.4678,99.54,103.29,0.99745,-0.071339,-0.00016288,0.00016022,-4.306e-05,1,-0.071339,-0.99745,-3.152e-05,-0.0022437,0.0020737,0.00066296,0.00062069,-5.0405e-07,7.7252e-06,0.0025672,0.00049292,-4.8619e-06,-3.1485e-09,-0.0022659,0.00066297,0.0020959,0.99745,-0.071332,-0.0013216,0.001317,-0.00011108,1,-0.071332,-0.99745,-1.685e-05,-0.00040162,0.00046078,0.00043376,-1.7539e-08,2.7302e-07,0.00012399,-0.0018421,0.0016129,0.00022921,-4.8651e-07,7.4522e-06,0.0004967,1,1,6.36,1696.4,0,3000
1.3627e-13,1.3627e-13,0.060219,102.76,99.54,7.3828,-0.0010443,0.016256,1.1633,101.93,0,0,0,202.36,10186,-4809.5,-0.4678,99.54,103.29,0.99745,-0.071339,-0.00016288,0.00016022,-4.306e-05,1,-0.071339,-0.99745,-3.152e-05,-0.0022437,0.0020737,0.00066296,0.00062069,-5.0405e-07,7.7252e-06,0.0025672,0.00049292,-4.8619e-06,-3.1485e-09,-0.0022659,0.00066297,0.0020959,0.99745,-0.071332,-0.0013216,0.001317,-0.00011108,1,-0.071332,-0.99745,-1.685e-05,-0.00040162,0.00046078,0.00043376,-1.7539e-08,2.7302e-07,0.00012399,-0.0018421,0.0016129,0.00022921,-4.8651e-07,7.4522e-06,0.0004967,1,1,6.42,1696.4,0,3000
1.4298e-13,1.4298e-13,0.060219,102.76,99.54,7.3828,-0.0010443,0.016256,1.1633,101.93,0,0,0,202.36,10186,-4809.5,-0.4678,99.54,103.29,0.99745,-0.071339,-0.00016288,0.00016022,-4.306e-05,1,-0.071339,-0.99745,-3.152e-05,-0.0022437,0.0020737,0.00066296,0.00062069,-5.0405e-07,7.7252e-06,0.0025672,0.00049292,-4.8619e-06,-3.1485e-09,-0.0022659,0.00066297,0.0020959,0.99745,-0.071332,-0.0013216,0.001317,-0.00011108,1,-0.071332,-0.99745,-1.685e-05,-0.00040162,0.00046078,0.00043376,-1.7539e-08,2.7302e-07,0.00012399,-0.0018421,0.0016129,0.00022921,-4.8651e-07,7.4522e-06,0.0004967,1,1,6.48,1696.5,0,3000
1.497e-13,1.497e-13,0.060219,102.76,99.54,7.3828,-0.0010443,0.016256,1.1633,101.93,0,0,0,202.36,10186,-4809.5,-0.4678,99.54,103.29,0.99745,-0.071339,-0.00016288,0.00016022,-4.306e-05,1,-0.071339,-0.99745,-3.152e-05,-0.0022437,0.0020737,0.00066296,0.00062069,-5.0405e-07,7.7252e-06,0.0025672,0.00049292,-4.8619e-06,-3.1485e-09,-0.0022659,0.00066297,0.0020959,0.99745,-0.071332,-0.0013216,0.001317,-0.00011108,1,-0.071332,-0.99745,-1.685e-05,-0.00040162,0.00046078,0.00043376,-1.7539e-08,2.7302e-07,0.00012399,-0.0018421,0.0016129,0.00022921,-4.8651e-07,7.4522e-06,0.0004967,1,1,6.54,1696.5,0,3000
1.5641e-13,1.5641e-13,0.060219,102.76,99.54,7.3828,-0.0010443,0.016256,1.1633,101.93,0,0,0,202.36,10186,-4809.5,-0.4678,99.54,103.29,0.99745,-0.071339,-0.00016288,0.00016022,-4.306e-05,1,-0.071339,-0.99745,-3.152e-05,-0.0022437,0.0020737,0.00066296,0.00062069,-5.0405e-07,7.7252e-06,0.0025672,0.00049292,-4.8619e-06,-3.1485e-09,-0.0022659,0.00066297,0.0020959,0.99745,-0.071332,-0.0013216,0.001317,-0.00011108,1,-0.071332,-0.99745,-1.685e-05,-0.00040162,0.00046078,0.00043376,-1.7539e-08,2.7302e-07,0.00012399,-0.0018421,0.0016129,0.00022921,-4.8651e-07,7.4522e-06,0.0004967,1,1,6.6,1696.6,0,3000
1.6313e-13,1.6313e-13,0.060219,102.76,99.54,7.3828,-0.0010443,0.016256,1.1633,101.93,0,0,0,202.36,10186,-4809.5,-0.4678,99.54,103.29,0.99745,-0.071339,-0.00016288,0.00016022,-4.306e-05,1,-0.071339,-0.99745,-3.152e-05,-0.0022437,0.0020737,0.00066296,0.00062069,-5.0405e-07,7.7252e-06,0.0025672,0.00049292,-4.8619e-06,-3.1485e-09,-0.0022659,0.00066297,0.0020959,0.99745,-0.071332,-0.0013216,0.001317,-0.00011108,1,-0.071332,-0.99745,-1.685e-05,-0.00040162,0.00046078,0.00043376,-1.7539e-08,2.7302e-07,0.00012399,-0.0018421,0.0016129,0.00022921,-4.8651e-07,7.4522e-06,0.0004967,1,1,6.66,1696.7,0,3000
1.6983e-13,1.6983e-13,0.060219,102.76,99.54,7.3828,-0.0010443,0.016256,1.1633,101.93,0,0,0,202.36,10186,-4809.5,-0.4678,99.54,103.29,0.99745,-0.071339,-0.00016288,0.00016022,-4.306e-05,1,-0.071339,-0.99745,-3.152e-05,-0.0022437,0.0020737,0.00066296,0.00062069,-5.0405e-07,7.7252e-06,0.0025672,0.00049292,-4.8619e-06,-3.1485e-09,-0.0022659,0.00066297,0.0020959,0.99745,-0.071332,-0.0013216,0.001317,-0.00011108,1,-0.071332,-0.99745,-1.685e-05,-0.00040162,0.00046078,0.00043376,-1.7539e-08,2.7302e-07,0.00012399,-0.0018421,0.0016129,0.00022921,-4.8651e-07,7.4522e-06,0.0004967,1,1,6.72,1696.7,0,3000
1.7656e-13,1.7656e-13,0.060219,102.76,99.54,7.3828,-0.0010443,0.016256,1.1633,101.93,0,0,0,202.36,10186,-4809.5,-0.4678,99.54,103.29,0.99745,-0.071339,-0.00016288,0.00016022,-4.306e-05,1,-0.071339,-0.99745,-3.152e-05,-0.0022437,0.0020737,0.00066296,0.00062069,-5.0405e-07,7.7252e-06,0.0025672,0.00049292,-4.8619e-06,-3.1485e-09,-0.0022659,0.00066297,0.0020959,0.99745,-0.071332,-0.0013216,0.001317,-0.00011108,1,-0.071332,-0.99745,-1.685e-05,-0.00040162,0.00046078,0.00043376,-1.7539e-08,2.7302e-07,0.00012399,-0.0018421,0.0016129,0.00022921,-4.8651e-07,7.4522e-06,0.0004967,1,1,6.78,1696.8,0,3000
1.8326e-13,1.8326e-13,0.060219,102.76,99.54,7.3828,-0.0010443,0.016256,1.1633,101.93,0,0,0,202.36,10186,-4809.5,-0.4678,99.54,103.29,0.99745,-0.071339,-0.00016288,0.00016022,-4.306e-05,1,-0.071339,-0.99745,-3.152e-05,-0.0022437,0.0020737,0.00066296,0.00062069,-5.0405e-07,7.7252e-06,0.0025672,0.00049292,-4.8619e-06,-3.1485e-09,-0.0022659,0.00066297,0.0020959,0.99745,-0.071332,-0.0013216,0.001317,-0.00011108,1,-0.071332,-0.99745,-1.685e-05,-0.00040162,0.00046078,0.00043376,-1.7539e-08,2.7302e-07,0.00012399,-0.0018421,0.0016129,0.00022921,-4.8651e-07,7.4522e-06,0.0004967,1,1,6.84,1696.8,0,3000
1.8998e-13,1.8998e-13,0.060219,102.76,99.54,7.3828,-0.0010443,0.016256,1.1633,101.93,0,0,0,202.36,10186,-4809.5,-0.4678,99.54,103.29,0.99745,-0.071339,-0.00016288,0.00016022,-4.306e-05,1,-0.071339,-0.99745,-3.152e-05,-0.0022437,0.0020737,0.00066296,0.00062069,-5.0405e-07,7.7252e-06,0.0025672,0.00049292,-4.8619e-06,-3.1485e-09,-0.0022659,0.00066297,0.0020959,0.99745,-0.071332,-0.0013216,0.001317,-0.00011108,1,-0.071332,-0.99745,-1.685e-05,-0.00040162,0.00046078,0.00043376,-1.7539e-08,2.7302e-07,0.00012399,-0.0018421,0.0016129,0.00022921,-4.8651e-07,7.4522e-06,0.0004967,1,1,6.9,1696.9,0,3000
1.9669e-13,1.9669e-13,0.060219,102.76,99.54,7.3828,-0.0010443,0.016256,1.1633,101.93,0,0,0,202.36,10186,-4809.5,-0.4678,99.54,103.29,0.99745,-0.071339,-0.00016288,0.00016022,-4.306e-05,1,-0.071339,-0.99745,-3.152e-05,-0.0022437,0.0020737,0.00066296,0.00062069,-5.0405e-07,7.7252e-06,0.0025672,0.00049292,-4.8619e-06,-3.1485e-09,-0.0022659,0.00066297,0.0020959,0.99745,-0.071332,-0.0013216,0.001317,-0.00011108,1,-0.071332,-0.99745,-1.685e-05,-0.00040162,0.00046078,0.00043376,-1.7539e-08,2.7302e-07,0.00012399,-0.0018421,0.0016129,0.00022921,-4.8651e-07,7.4522e-06,0.0004967,1,1,6.96,1697,0,3000
1.9826e-13,1.9826e-13,0.12457,103.27,99.091,7.4148,-0.00069287,0.010918,0.91082,101.93,0,0,0,202.48,10203,-4173.2,-0.40574,99.091,103.8,0.99745,-0.071339,-0.00010995,0.00010834,-2.6439e-05,1,-0.071339,-0.99745,-1.8643e-05,-0.0022408,0.0020711,0.00066288,0.00061991,-2.8868e-07,4.4368e-06,0.002564,0.00049323,-4.8495e-06,-3.1401e-09,-0.002263,0.00066288,0.0020933,0.99745,-0.071334,-0.00075979,0.00075715,-6.4152e-05,1,-0.071334,-0.99745,-9.9786e-06,-0.00040132,0.00046481,0.00042974,-1.1637e-08,1.8336e-07,0.00012453,-0.0018395,0.0016063,0.00023314,-2.7704e-07,4.2534e-06,0.00049538,1,1,7.02,1697,0,3000
1.8953e-13,1.8953e-13,0.12457,103.27,99.091,7.4148,-0.00069287,0.010918,0.91082,101.93,0,0,0,202.48,10203,-4173.2,-0.40574,99.091,103.8,0.99745,-0.071339,-0.00010995,0.00010834,-2.6439e-05,1,-0.071339,-0.99745,-1.8643e-05,-0.0022408,0.0020711,0.00066288,0.00061991,-2.8868e-07,4.4368e-06,0.002564,0.00049323,-4.8495e-06,-3.1401e-09,-0.002263,0.00066288,0.0020933,0.99745,-0.071334,-0.00075979,0.00075715,-6.4152e-05,1,-0.071334,-0.99745,-9.9786e-06,-0.00040132,0.00046481,0.00042974,-1.1637e-08,1.8336e-07,0.00012453,-0.0018395,0.0016063,0.00023314,-2.7704e-07,4.2534e-06,0.00049538,1,1,7.08,1697.1,0,3000
1.8078e-13,1.8078e-13,0.12457,103.27,99.091,7.4148,-0.00069287,0.010918,0.91082,101.93,0,0,0,202.48,10203,-4173.2,-0.40574,99.091,103.8,0.99745,-0.071339,-0.00010995,0.00010834,-2.6439e-05,1,-0.071339,-0.99745,-1.8643e-05,-0.0022408,0.0020711,0.00066288,0.00061991,-2.8868e-07,4.4368e-06,0.002564,0.00049323,-4.8495e-06,-3.1401e-09,-0.002263,0.00066288,0.0020933,0.99745,-0.071334,-0.00075979,0.00075715,-6.4152e-05,1,-0.071334,-0.99745,-9.9786e-06,-0.00040132,0.00046481,0.00042974,-1.1637e-08,1.8336e-07,0.00012453,-0.0018395,0.0016063,0.00023314,-2.7704e-07,4.2534e-06,0.00049538,1,1,7.14,1697.1,0,3000
1.7205e-13,1.7205e-13,0.12457,103.27,99.091,7.4148,-0.00069287,0.010918,0.91082,101.93,0,0,0,202.48,10203,-4173.2,-0.40574,99.091,103.8,0.99745,-0.071339,-0.00010995,0.00010834,-2.6439e-05,1,-0.071339,-0.99745,-1.8643e-05,-0.0022408,0.0020711,0.00066288,0.00061991,-2.8868e-07,4.4368e-06,0.002564,0.00049323,-4.8495e-06,-3.1401e-09,-0.002263,0.00066288,0.0020933,0.99745,-0.071334,-0.00075979,0.00075715,-6.4152e-05,1,-0.071334,-0.99745,-9.9786e-06,-0.00040132,0.00046481,0.00042974,-1.1637e-08,1.8336e-07,0.00012453,-0.0018395,0.0016063,0.00023314,-2.7704e-07,4.2534e-06,0.00049538,1,1,7.2,1697.2,0,3000
1.633e-13,1.633e-13,0.12457,103.27,99.091,7.4148,-0.00069287,0.010918,0.91082,101.93,0,0,0,202.48,10203,-4173.2,-0.40574,99.091,103.8,0.99745,-0.071339,-0.00010995,0.00010834,-2.6439e-05,1,-0.071339,-0.99745,-1.8643e-05,-0.0022408,0.0020711,0.00066288,0.00061991,-2.8868e-07,4.4368e-06,0.002564,0.00049323,-4.8495e-06,-3.1401e-09,-0.002263,0.00066288,0.0020933,0.99745,-0.071334,-0.00075979,0.00075715,-6.4152e-05,1,-0.071334,-0.99745,-9.9786e-06,-0.00040132,0.00046481,0.00042974,-1.1637e-08,1.8336e-07,0.00012453,-0.0018395,0.0016063,0.00023314,-2.7704e-07,4.2534e-06,0.00049538,1,1,7.26,1697.3,0,3000
1.5457e-13,1.5457e-13,0.12457,103.27,99.091,7.4148,-0.00069287,0.010918,0.91082,101.93,0,0,0,202.48,10203,-4173.2,-0.40574,99.091,103.8,0.99745,-0.071339,-0.00010995,0.00010834,-2.6439e-05,1,-0.071339,-0.99745,-1.8643e-05,-0.0022408,0.0020711,0.00066288,0.00061991,-2.8868e-07,4.4368e-06,0.002564,0.00049323,-4.8495e-06,-3.1401e-09,-0.002263,0.00066288,0.0020933,0.99745,-0.071334,-0.00075979,0.00075715,-6.4152e-05,1,-0.071334,-0.99745,-9.9786e-06,-0.00040132,0.00046481,0.00042974,-1.1637e-08,1.8336e-07,0.00012453,-0.0018395,0.0016063,0.00023314,-2.7704e-07,4.2534e-06,0.00049538,1,1,7.3199,1697.3,0,3000
1.4582e-13,1.4582e-13,0.12457,103.27,99.091,7.4148,-0.00069287,0.010918,0.91082,101.93,0,0,0,202.48,10203,-4173.2,-0.40574,99.091,103.8,0.99745,-0.071339,-0.00010995,0.00010834,-2.6439e-05,1,-0.071339,-0.99745,-1.8643e-05,-0.0022408,0.0020711,0.00066288,0.00061991,-2.8868e-07,4.4368e-06,0.002564,0.00049323,-4.8495e-06,-3.1401e-09,-0.002263,0.00066288,0.0020933,0.99745,-0.071334,-0.00075979,0.00075715,-6.4152e-05,1,-0.071334,-0.99745,-9.9786e-06,-0.00040132,0.00046481,0.00042974,-1.1637e-08,1.8336e-07,0.00012453,-0.0018395,0.0016063,0.00023314,-2.7704e-07,4.2534e-06,0.00049538,1,1,7.38,1697.4,0,3000
1.3709e-13,1.3709e-13,0.12457,103.27,99.091,7.4148,-0.00069287,0.010918,0.91082,101.93,0,0,0,202.48,10203,-4173.2,-0.40574,99.091,103.8,0.99745,-0.071339,-0.00010995,0.00010834,-2.6439e-05,1,-0.071339,-0.99745,-1.8643e-05,-0.0022408,0.0020711,0.00066288,0.00061991,-2.8868e-07,4.4368e-06,0.002564,0.00049323,-4.8495e-06,-3.1401e-09,-0.002263,0.00066288,0.0020933,0.99745,-0.071334,-0.00075979,0.00075715,-6.4152e-05,1,-0.071334,-0.99745,-9.9786e-06,-0.00040132,0.00046481,0.00042974,-1.1637e-08,1.8336e-07,0.00012453,-0.0018395,0.0016063,0.00023314,-2.7704e-07,4.2534e-06,0.00049538,1,1,7.4399,1697.4,0,3000
1.2834e-13,1.2834e-13,0.12457,103.27,99.091,7.4148,-0.00069287,0.010918,0.91082,101.93,0,0,0,202.48,10203,-4173.2,-0.40574,99.091,103.8,0.99745,-0.071339,-0.00010995,0.00010834,-2.6439e-05,1,-0.071339,-0.99745,-1.8643e-05,-0.0022408,0.0020711,0.00066288,0.00061991,-2.8868e-07,4.4368e-06,0.002564,0.00049323,-4.8495e-06,-3.1401e-09,-0.002263,0.00066288,0.0020933,0.99745,-0.071334,-0.00075979,0.00075715,-6.4152e-05,1,-0.071334,-0.99745,-9.9786e-06,-0.00040132,0.00046481,0.00042974,-1.1637e-08,1.8336e-07,0.00012453,-0.0018395,0.0016063,0.00023314,-2.7704e-07,4.2534e-06,0.00049538,1,1,7.5,1697.5,0,3000
1.1959e-13,1.1959e-13,0.12457,103.27,99.091,7.4148,-0.00069287,0.010918,0.91082,101.93,0,0,0,202.48,10203,-4173.2,-0.40574,99.091,103.8,0.99745,-0.071339,-0.00010995,0.00010834,-2.6439e-05,1,-0.071339,-0.99745,-1.8643e-05,-0.0022408,0.0020711,0.00066288,0.00061991,-2.8868e-07,4.4368e-06,0.002564,0.00049323,-4.8495e-06,-3.1401e-09,-0.002263,0.00066288,0.0020933,0.99745,-0.071334,-0.00075979,0.00075715,-6.4152e-05,1,-0.071334,-0.99745,-9.9786e-06,-0.00040132,0.00046481,0.00042974,-1.1637e-08,1.8336e-07,0.00012453,-0.0018395,0.0016063,0.00023314,-2.7704e-07,4.2534e-06,0.00049538,1,1,7.5601,1697.6,0,3000
1.1086e-13,1.1086e-13,0.12457,103.27,99.091,7.4148,-0.00069287,0.010918,0.91082,101.93,0,0,0,202.48,10203,-4173.2,-0.40574,99.091,103.8,0.99745,-0.071339,-0.00010995,0.00010834,-2.6439e-05,1,-0.071339,-0.99745,-1.8643e-05,-0.0022408,0.0020711,0.00066288,0.00061991,-2.8868e-07,4.4368e-06,0.002564,0.00049323,-4.8495e-06,-3.1401e-09,-0.002263,0.00066288,0.0020933,0.99745,-0.071334,-0.00075979,0.00075715,-6.4152e-05,1,-0.071334,-0.99745,-9.9786e-06,-0.00040132,0.00046481,0.00042974,-1.1637e-08,1.8336e-07,0.00012453,-0.0018395,0.0016063,0.00023314,-2.7704e-07,4.2534e-06,0.00049538,1,1,7.62,1697.6,0,3000
1.0211e-13,1.0211e-13,0.12457,103.27,99.091,7.4148,-0.00069287,0.010918,0.91082,101.93,0,0,0,202.48,10203,-4173.2,-0.40574,99.091,103.8,0.99745,-0.071339,-0.00010995,0.00010834,-2.6439e-05,1,-0.071339,-0.99745,-1.8643e-05,-0.0022408,0.0020711,0.00066288,0.00061991,-2.8868e-07,4.4368e-06,0.002564,0.00049323,-4.8495e-06,-3.1401e-09,-0.002263,0.00066288,0.0020933,0.99745,-0.071334,-0.00075979,0.00075715,-6.4152e-05,1,-0.071334,-0.99745,-9.9786e-06,-0.00040132,0.00046481,0.00042974,-1.1637e-08,1.8336e-07,0.00012453,-0.0018395,0.0016063,0.00023314,-2.7704e-07,4.2534e-06,0.00049538,1,1,7.6801,1697.7,0,3000
9.3385e-14,9.3385e-14,0.12457,103.27,99.091,7.4148,-0.00069287,0.010918,0.91082,101.93,0,0,0,202.48,10203,-4173.2,-0.40574,99.091,103.8,0.99745,-0.071339,-0.00010995,0.00010834,-2.6439e-05,1,-0.071339,-0.99745,-1.8643e-05,-0.0022408,0.0020711,0.00066288,0.00061991,-2.8868e-07,4.4368e-06,0.002564,0.00049323,-4.8495e-06,-3.1401e-09,-0.002263,0.00066288,0.0020933,0.99745,-0.071334,-0.00075979,0.00075715,-6.4152e-05,1,-0.071334,-0.99745,-9.9786e-06,-0.00040132,0.00046481,0.00042974,-1.1637e-08,1.8336e-07,0.00012453,-0.0018395,0.0016063,0.00023314,-2.7704e-07,4.2534e-06,0.00049538,1,1,7.74,1697.7,0,3000
8.4636e-14,8.4636e-14,0.12457,103.27,99.091,7.4148,-0.00069287,0.010918,0.91082,101.93,0,0,0,202.48,10203,-4173.2,-0.40574,99.091,103.8,0.99745,-0.071339,-0.00010995,0.00010834,-2.6439e-05,1,-0.071339,-0.99745,-1.8643e-05,-0.0022408,0.0020711,0.00066288,0.00061991,-2.8868e-07,4.4368e-06,0.002564,0.00049323,-4.8495e-06,-3.1401e-09,-0.002263,0.00066288,0.0020933,0.99745,-0.071334,-0.00075979,0.00075715,-6.4152e-05,1,-0.071334,-0.99745,-9.9786e-06,-0.00040132,0.00046481,0.00042974,-1.1637e-08,1.8336e-07,0.00012453,-0.0018395,0.0016063,0.00023314,-2.7704e-07,4.2534e-06,0.00049538,1,1,7.8,1697.8,0,3000
7.5906e-14,7.5906e-14,0.12457,103.27,99.091,7.4148,-0.00069287,0.010918,0.91082,101.93,0,0,0,202.48,10203,-4173.2,-0.40574,99.091,103.8,0.99745,-0.071339,-0.00010995,0.00010834,-2.6439e-05,1,-0.071339,-0.99745,-1.8643e-05,-0.0022408,0.0020711,0.00066288,0.00061991,-2.8868e-07,4.4368e-06,0.002564,0.00049323,-4.8495e-06,-3.1401e-09,-0.002263,0.00066288,0.0020933,0.99745,-0.071334,-0.00075979,0.00075715,-6.4152e-05,1,-0.071334,-0.99745,-9.9786e-06,-0.00040132,0.00046481,0.00042974,-1.1637e-08,1.8336e-07,0.00012453,-0.0018395,0.0016063,0.00023314,-2.7704e-07,4.2534e-06,0.00049538,1,1,7.86,1697.9,0,3000
6.7158e-14,6.7158e-14,0.12457,103.27,99.091,7.4148,-0.00069287,0.010918,0.91082,101.93,0,0,0,202.48,10203,-4173.2,-0.40574,99.091,103.8,0.99745,-0.071339,-0.00010995,0.00010834,-2.6439e-05,1,-0.071339,-0.99745,-1.8643e-05,-0.0022408,0.0020711,0.00066288,0.00061991,-2.8868e-07,4.4368e-06,0.002564,0.00049323,-4.8495e-06,-3.1401e-09,-0.002263,0.00066288,0.0020933,0.99745,-0.071334,-0.00075979,0.00075715,-6.4152e-05,1,-0.071334,-0.99745,-9.9786e-06,-0.00040132,0.00046481,0.00042974,-1.1637e-08,1.8336e-07,0.00012453,-0.0018395,0.0016063,0.00023314,-2.7704e-07,4.2534e-06,0.00049538,1,1,7.92,1697.9,0,3000
5.8427e-14,5.8427e-14,0.12457,103.27,99.091,7.4148,-0.00069287,0.010918,0.91082,101.93,0,0,0,202.48,10203,-4173.2,-0.40574,99.091,103.8,0.99745,-0.071339,-0.00010995,0.00010834,-2.6439e-05,1,-0.071339,-0.99745,-1.8643e-05,-0.0022408,0.0020711,0.00066288,0.00061991,-2.8868e-07,4.4368e-06,0.002564,0.00049323,-4.8495e-06,-3.1401e-09,-0.002263,0.00066288,0.0020933,0.99745,-0.071334,-0.00075979,0.00075715,-6.4152e-05,1,-0.071334,-0.99745,-9.9786e-06,-0.00040132,0.00046481,0.00042974,-1.1637e-08,1.8336e-07,0.00012453,-0.0018395,0.0016063,0.00023314,-2.7704e-07,4.2534e-06,0.00049538,1,1,7.98,1698,0,3000
5.9761e-14,5.9761e-14,0.19104,104.06,98.286,7.4671,-0.00040296,0.0065322,0.6929,101.93,0,0,0,202.54,10211,-3526.3,-0.34302,98.286,104.6,0.99745,-0.071338,-6.6353e-05,6.5459e-05,-1.4862e-05,1,-0.071338,-0.99745,-1.0154e-05,-0.002238,0.0020686,0.0006628,0.00061916,-1.4046e-07,2.1762e-06,0.0025609,0.00049336,-4.8377e-06,-3.132e-09,-0.0022602,0.0006628,0.0020907,0.99745,-0.071335,-0.00037302,0.00037169,-3.1897e-05,1,-0.071335,-0.99745,-5.3012e-06,-0.00040088,0.00047137,0.00042287,-6.7676e-09,1.0971e-07,0.00012541,-0.0018371,0.0015972,0.00023993,-1.3369e-07,2.0665e-06,0.00049375,1,1,8.04,1698,0,3000
6.6122e-14,6.6122e-14,0.19104,104.06,98.286,7.4671,-0.00040296,0.0065322,0.6929,101.93,0,0,0,202.54,10211,-3526.3,-0.34302,98.286,104.6,0.99745,-0.071338,-6.6353e-05,6.5459e-05,-1.4862e-05,1,-0.071338,-0.99745,-1.0154e-05,-0.002238,0.0020686,0.0006628,0.00061916,-1.4046e-07,2.1762e-06,0.0025609,0.00049336,-4.8377e-06,-3.132e-09,-0.0022602,0.0006628,0.0020907,0.99745,-0.071335,-0.00037302,0.00037169,-3.1897e-05,1,-0.071335,-0.99745,-5.3012e-06,-0.00040088,0.00047137,0.00042287,-6.7676e-09,1.0971e-07,0.00012541,-0.0018371,0.0015972,0.00023993,-1.3369e-07,2.0665e-06,0.00049375,1,1,8.1,1698.1,0,3000
7.2497e-14,7.2497e-14,0.19104,104.06,98.286,7.4671,-0.00040296,0.0065322,0.6929,101.93,0,0,0,202.54,10211,-3526.3,-0.34302,98.286,104.6,0.99745,-0.071338,-6.6353e-05,6.5459e-05,-1.4862e-05,1,-0.071338,-0.99745,-1.0154e-05,-0.002238,0.0020686,0.0006628,0.00061916,-1.4046e-07,2.1762e-06,0.0025609,0.00049336,-4.8377e-06,-3.132e-09,-0.0022602,0.0006628,0.0020907,0.99745,-0.071335,-0.00037302,0.00037169,-3.1897e-05,1,-0.071335,-0.99745,-5.3012e-06,-0.00040088,0.00047137,0.00042287,-6.7676e-09,1.0971e-07,0.00012541,-0.0018371,0.0015972,0.00023993,-1.3369e-07,2.0665e-06,0.00049375,1,1,8.16,1698.2,0,3000
7.8858e-14,7.8858e-14,0.19104,104.06,98.286,7.4671,-0.00040296,0.0065322,0.6929,101.93,0,0,0,202.54,10211,-3526.3,-0.34302,98.286,104.6,0.99745,-0.071338,-6.6353e-05,6.5459e-05,-1.4862e-05,1,-0.071338,-0.99745,-1.0154e-05,-0.002238,0.0020686,0.0006628,0.00061916,-1.4046e-07,2.1762e-06,0.0025609,0.00049336,-4.8377e-06,-3.132e-09,-0.0022602,0.0006628,0.0020907,0.99745,-0.071335,-0.00037302,0.00037169,-3.1897e-05,1,-0.071335,-0.99745,-5.3012e-06,-0.00040088,0.00047137,0.00042287,-6.7676e-09,1.0971e-07,0.00012541,-0.0018371,0.0015972,0.00023993,-1.3369e-07,2.0665e-06,0.00049375,1,1,8.22,1698.2,0,3000
8.5233e-14,8.5233e-14,0.19104,104.06,98.286,7.4671,-0.00040296,0.0065322,0.6929,101.93,0,0,0,202.54,10211,-3526.3,-0.34302,98.286,104.6,0.99745,-0.071338,-6.6353e-05,6.5459e-05,-1.4862e-05,1,-0.071338,-0.99745,-1.0154e-05,-0.002238,0.0020686,0.0006628,0.00061916,-1.4046e-07,2.1762e-06,0.0025609,0.00049336,-4.8377e-06,-3.132e-09,-0.0022602,0.0006628,0.0020907,0.99745,-0.071335,-0.00037302,0.00037169,-3.1897e-05,1,-0.071335,-0.99745,-5.3012e-06,-0.00040088,0.00047137,0.00042287,-6.7676e-09,1.0971e-07,0.00012541,-0.0018371,0.0015972,0.00023993,-1.3369e-07,2.0665e-06,0.00049375,1,1,8.28,1698.3,0,3000
9.1594e-14,9.1594e-14,0.19104,104.06,98.286,7.4671,-0.00040296,0.0065322,0.6929,101.93,0,0,0,202.54,10211,-3526.3,-0.34302,98.286,104.6,0.99745,-0.071338,-6.6353e-05,6.5459e-05,-1.4862e-05,1,-0.071338,-0.99745,-1.0154e-05,-0.002238,0.0020686,0.0006628,0.00061916,-1.4046e-07,2.1762e-06,0.0025609,0.00049336,-4.8377e-06,-3.132e-09,-0.0022602,0.0006628,0.0020907,0.99745,-0.071335,-0.00037302,0.00037169,-3.1897e-05,1,-0.071335,-0.99745,-5.3012e-06,-0.00040088,0.00047137,0.00042287,-6.7676e-09,1.0971e-07,0.00012541,-0.0018371,0.0015972,0.00023993,-1.3369e-07,2.0665e-06,0.00049375,1,1,8.34,1698.3,0,3000
9.7969e-14,9.7969e-14,0.19104,104.06,98.286,7.4671,-0.00040296,0.0065322,0.6929,101.93,0,0,0,202.54,10211,-3526.3,-0.34302,98.286,104.6,0.99745,-0.071338,-6.6353e-05,6.5459e-05,-1.4862e-05,1,-0.071338,-0.99745,-1.0154e-05,-0.002238,0.0020686,0.0006628,0.00061916,-1.4046e-07,2.1762e-06,0.0025609,0.00049336,-4.8377e-06,-3.132e-09,-0.0022602,0.0006628,0.0020907,0.99745,-0.071335,-0.00037302,0.00037169,-3.1897e-05,1,-0.071335,-0.99745,-5.3012e-06,-0.00040088,0.00047137,0.00042287,-6.7676e-09,1.0971e-07,0.00012541,-0.0018371,0.0015972,0.00023993,-1.3369e-07,2.0665e-06,0.00049375,1,1,8.4,1698.4,0,3000
1.0433e-13,1.0433e-13,0.19104,104.06,98.286,7.4671,-0.00040296,0.0065322,0.6929,101.93,0,0,0,202.54,10211,-3526.3,-0.34302,98.286,104.6,0.99745,-0.071338,-6.6353e-05,6.5459e-05,-1.4862e-05,1,-0.071338,-0.99745,-1.0154e-05,-0.002238,0.0020686,0.0006628,0.00061916,-1.4046e-07,2.1762e-06,0.0025609,0.00049336,-4.8377e-06,-3.132e-09,-0.0022602,0.0006628,0.0020907,0.99745,-0.071335,-0.00037302,0.00037169,-3.1897e-05,1,-0.071335,-0.99745,-5.3012e-06,-0.00040088,0.00047137,0.00042287,-6.7676e-09,1.0971e-07,0.00012541,-0.0018371,0.0015972,0.00023993,-1.3369e-07,2.0665e-06,0.00049375,1,1,8.46,1698.5,0,3000
1.107e-13,1.107e-13,0.19104,104.06,98.286,7.4671,-0.00040296,0.0065322,0.6929,101.93,0,0,0,202.54,10211,-3526.3,-0.34302,98.286,104.6,0.99745,-0.071338,-6.6353e-05,6.5459e-05,-1.4862e-05,1,-0.071338,-0.99745,-1.0154e-05,-0.002238,0.0020686,0.0006628,0.00061916,-1.4046e-07,2.1762e-06,0.0025609,0.00049336,-4.8377e-06,-3.132e-09,-0.0022602,0.0006628,0.0020907,0.99745,-0.071335,-0.00037302,0.00037169,-3.1897e-05,1,-0.071335,-0.99745,-5.3012e-06,-0.00040088,0.00047137,0.00042287,-6.7676e-09,1.0971e-07,0.00012541,-0.0018371,0.0015972,0.00023993,-1.3369e-07,2.0665e-06,0.00049375,1,1,8.52,1698.5,0,3000
1.1707e-13,1.1707e-13,0.19104,104.06,98.286,7.4671,-0.00040296,0.0065322,0.6929,101.93,0,0,0,202.54,10211,-3526.3,-0.34302,98.286,104.6,0.99745,-0.071338,-6.6353e-05,6.5459e-05,-1.4862e-05,1,-0.071338,-0.99745,-1.0154e-05,-0.002238,0.0020686,0.0006628,0.00061916,-1.4046e-07,2.1762e-06,0.0025609,0.00049336,-4.8377e-06,-3.132e-09,-0.0022602,0.0006628,0.0020907,0.99745,-0.071335,-0.00037302,0.00037169,-3.1897e-05,1,-0.071335,-0.99745,-5.3012e-06,-0.00040088,0.00047137,0.00042287,-6.7676e-09,1.0971e-07,0.00012541,-0.0018371,0.0015972,0.00023993,-1.3369e-07,2.0665e-06,0.00049375,1,1,8.58,1698.6,0,3000
1.2344e-13,1.2344e-13,0.19104,104.06,98.286,7.4671,-0.00040296,0.0065322,0.6929,101.93,0,0,0,202.54,10211,-3526.3,-0.34302,98.286,104.6,0.99745,-0.071338,-6.6353e-05,6.5459e-05,-1.4862e-05,1,-0.071338,-0.99745,-1.0154e-05,-0.002238,0.0020686,0.0006628,0.00061916,-1.4046e-07,2.1762e-06,0.0025609,0.00049336,-4.8377e-06,-3.132e-09,-0.0022602,0.0006628,0.0020907,0.99745,-0.071335,-0.00037302,0.00037169,-3.1897e-05,1,-0.071335,-0.99745,-5.3012e-06,-0.00040088,0.00047137,0.00042287,-6.7676e-09,1.0971e-07,0.00012541,-0.0018371,0.0015972,0.00023993,-1.3369e-07,2.0665e-06,0.00049375,1,1,8.64,1698.6,0,3000
1.298e-13,1.298e-13,0.19104,104.06,98.286,7.4671,-0.00040296,0.0065322,0.6929,101.93,0,0,0,202.54,10211,-3526.3,-0.34302,98.286,104.6,0.99745,-0.071338,-6.6353e-05,6.5459e-05,-1.4862e-05,1,-0.071338,-0.99745,-1.0154e-05,-0.002238,0.0020686,0.0006628,0.00061916,-1.4046e-07,2.1762e-06,0.0025609,0.00049336,-4.8377e-06,-3.132e-09,-0.0022602,0.0006628,0.0020907,0.99745,-0.071335,-0.00037302,0.00037169,-3.1897e-05,1,-0.071335,-0.99745,-5.3012e-06,-0.00040088,0.00047137,0.00042287,-6.7676e-09,1.0971e-07,0.00012541,-0.0018371,0.0015972,0.00023993,-1.3369e-07,2.0665e-06,0.00049375,1,1,8.7,1698.7,0,3000
1.3618e-13,1.3618e-13,0.19104,104.06,98.286,7.4671,-0.00040296,0.0065322,0.6929,101.93,0,0,0,202.54,10211,-3526.3,-0.34302,98.286,104.6,0.99745,-0.071338,-6.6353e-05,6.5459e-05,-1.4862e-05,1,-0.071338,-0.99745,-1.0154e-05,-0.002238,0.0020686,0.0006628,0.00061916,-1.4046e-07,2.1762e-06,0.0025609,0.00049336,-4.8377e-06,-3.132e-09,-0.0022602,0.0006628,0.0020907,0.99745,-0.071335,-0.00037302,0.00037169,-3.1897e-05,1,-0.071335,-0.99745,-5.3012e-06,-0.00040088,0.00047137,0.00042287,-6.7676e-09,1.0971e-07,0.00012541,-0.0018371,0.0015972,0.00023993,-1.3369e-07,2.0665e-06,0.00049375,1,1,8.76,1698.8,0,3000
1.4254e-13,1.4254e-13,0.19104,104.06,98.286,7.4671,-0.00040296,0.0065322,0.6929,101.93,0,0,0,202.54,10211,-3526.3,-0.34302,98.286,104.6,0.99745,-0.071338,-6.6353e-05,6.5459e-05,-1.4862e-05,1,-0.071338,-0.99745,-1.0154e-05,-0.002238,0.0020686,0.0006628,0.00061916,-1.4046e-07,2.1762e-06,0.0025609,0.00049336,-4.8377e-06,-3.132e-09,-0.0022602,0.0006628,0.0020907,0.99745,-0.071335,-0.00037302,0.00037169,-3.1897e-05,1,-0.071335,-0.99745,-5.3012e-06,-0.00040088,0.00047137,0.00042287,-6.7676e-09,1.0971e-07,0.00012541,-0.0018371,0.0015972,0.00023993,-1.3369e-07,2.0665e-06,0.00049375,1,1,8.8199,1698.8,0,3000
1.4891e-13,1.4891e-13,0.19104,104.06,98.286,7.4671,-0.00040296,0.0065322,0.6929,101.93,0,0,0,202.54,10211,-3526.3,-0.34302,98.286,104.6,0.99745,-0.071338,-6.6353e-05,6.5459e-05,-1.4862e-05,1,-0.071338,-0.99745,-1.0154e-05,-0.002238,0.0020686,0.0006628,0.00061916,-1.4046e-07,2.1762e-06,0.0025609,0.00049336,-4.8377e-06,-3.132e-09,-0.0022602,0.0006628,0.0020907,0.99745,-0.071335,-0.00037302,0.00037169,-3.1897e-05,1,-0.071335,-0.99745,-5.3012e-06,-0.00040088,0.00047137,0.00042287,-6.7676e-09,1.0971e-07,0.00012541,-0.0018371,0.0015972,0.00023993,-1.3369e-07,2.0665e-06,0.00049375,1,1,8.88,1698.9,0,3000
1.5527e-13,1.5527e-13,0.19104,104.06,98.286,7.4671,-0.00040296,0.0065322,0.6929,101.93,0,0,0,202.54,10211,-3526.3,-0.34302,98.286,104.6,0.99745,-0.071338,-6.6353e-05,6.5459e-05,-1.4862e-05,1,-0.071338,-0.99745,-1.0154e-05,-0.002238,0.0020686,0.0006628,0.00061916,-1.4046e-07,2.1762e-06,0.0025609,0.00049336,-4.8377e-06,-3.132e-09,-0.0022602,0.0006628,0.0020907,0.99745,-0.071335,-0.00037302,0.00037169,-3.1897e-05,1,-0.071335,-0.99745,-5.3012e-06,-0.00040088,0.00047137,0.00042287,-6.7676e-09,1.0971e-07,0.00012541,-0.0018371,0.0015972,0.00023993,-1.3369e-07,2.0665e-06,0.00049375,1,1,8.9399,1698.9,0,3000
1.6165e-13,1.6165e-13,0.19104,104.06,98.286,7.4671,-0.00040296,0.0065322,0.6929,101.93,0,0,0,202.54,10211,-3526.3,-0.34302,98.286,104.6,0.99745,-0.071338,-6.6353e-05,6.5459e-05,-1.4862e-05,1,-0.071338,-0.99745,-1.0154e-05,-0.002238,0.0020686,0.0006628,0.00061916,-1.4046e-07,2.1762e-06,0.0025609,0.00049336,-4.8377e-06,-3.132e-09,-0.0022602,0.0006628,0.0020907,0.99745,-0.071335,-0.00037302,0.00037169,-3.1897e-05,1,-0.071335,-0.99745,-5.3012e-06,-0.00040088,0.00047137,0.00042287,-6.7676e-09,1.0971e-07,0.00012541,-0.0018371,0.0015972,0.00023993,-1.3369e-07,2.0665e-06,0.00049375,1,1,9,1699,0,3000
1.5277e-13,1.5277e-13,0.26081,105.3,96.863,7.5513,-0.00015719,0.0028468,0.52195,101.93,0,0,0,202.43,10196,-2863,-0.27926,96.863,105.84,0.99745,-0.071338,-2.9346e-05,2.8904e-05,-7.2368e-06,1,-0.071338,-0.99745,-5.1564e-06,-0.0022357,0.002066,0.00066271,0.00061847,-4.7718e-08,7.6477e-07,0.0025581,0.00049309,-4.827e-06,-3.1244e-09,-0.0022578,0.00066271,0.0020881,0.99745,-0.071337,-0.00013118,0.00013067,-1.1793e-05,1,-0.071337,-0.99745,-2.4413e-06,-0.00040007,0.00048201,0.00041114,-2.6399e-09,4.7812e-08,0.00012682,-0.0018356,0.001584,0.00025157,-4.5078e-08,7.1696e-07,0.00049164,1,1,9.0601,1699.1,0,3000
1.439e-13,1.439e-13,0.26081,105.3,96.863,7.5513,-0.00015719,0.0028468,0.52195,101.93,0,0,0,202.43,10196,-2863,-0.27926,96.863,105.84,0.99745,-0.071338,-2.9346e-05,2.8904e-05,-7.2368e-06,1,-0.071338,-0.99745,-5.1564e-06,-0.0022357,0.002066,0.00066271,0.00061847,-4.7718e-08,7.6477e-07,0.0025581,0.00049309,-4.827e-06,-3.1244e-09,-0.0022578,0.00066271,0.0020881,0.99745,-0.071337,-0.00013118,0.00013067,-1.1793e-05,1,-0.071337,-0.99745,-2.4413e-06,-0.00040007,0.00048201,0.00041114,-2.6399e-09,4.7812e-08,0.00012682,-0.0018356,0.001584,0.00025157,-4.5078e-08,7.1696e-07,0.00049164,1,1,9.12,1699.1,0,3000
1.3502e-13,1.3502e-13,0.26081,105.3,96.863,7.5513,-0.00015719,0.0028468,0.52195,101.93,0,0,0,202.43,10196,-2863,-0.27926,96.863,105.84,0.99745,-0.071338,-2.9346e-05,2.8904e-05,-7.2368e-06,1,-0.071338,-0.99745,-5.1564e-06,-0.0022357,0.002066,0.00066271,0.00061847,-4.7718e-08,7.6477e-07,0.0025581,0.00049309,-4.827e-06,-3.1244e-09,-0.0022578,0.00066271,0.0020881,0.99745,-0.071337,-0.00013118,0.00013067,-1.1793e-05,1,-0.071337,-0.99745,-2.4413e-06,-0.00040007,0.00048201,0.00041114,-2.6399e-09,4.7812e-08,0.00012682,-0.0018356,0.001584,0.00025157,-4.5078e-08,7.1696e-07,0.00049164,1,1,9.1801,1699.2,0,3000
1.2616e-13,1.2616e-13,0.26081,105.3,96.863,7.5513,-0.00015719,0.0028468,0.52195,101.93,0,0,0,202.43,10196,-2863,-0.27926,96.863,105.84,0.99745,-0.071338,-2.9346e-05,2.8904e-05,-7.2368e-06,1,-0.071338,-0.99745,-5.1564e-06,-0.0022357,0.002066,0.00066271,0.00061847,-4.7718e-08,7.6477e-07,0.0025581,0.00049309,-4.827e-06,-3.1244e-09,-0.0022578,0.00066271,0.0020881,0.99745,-0.071337,-0.00013118,0.00013067,-1.1793e-05,1,-0.071337,-0.99745,-2.4413e-06,-0.00040007,0.00048201,0.00041114,-2.6399e-09,4.7812e-08,0.00012682,-0.0018356,0.001584,0.00025157,-4.5078e-08,7.1696e-07,0.00049164,1,1,9.24,1699.2,0,3000
1.1728e-13,1.1728e-13,0.26081,105.3,96.863,7.5513,-0.00015719,0.0028468,0.52195,101.93,0,0,0,202.43,10196,-2863,-0.27926,96.863,105.84,0.99745,-0.071338,-2.9346e-05,2.8904e-05,-7.2368e-06,1,-0.071338,-0.99745,-5.1564e-06,-0.0022357,0.002066,0.00066271,0.00061847,-4.7718e-08,7.6477e-07,0.0025581,0.00049309,-4.827e-06,-3.1244e-09,-0.0022578,0.00066271,0.0020881,0.99745,-0.071337,-0.00013118,0.00013067,-1.1793e-05,1,-0.071337,-0.99745,-2.4413e-06,-0.00040007,0.00048201,0.00041114,-2.6399e-09,4.7812e-08,0.00012682,-0.0018356,0.001584,0.00025157,-4.5078e-08,7.1696e-07,0.00049164,1,1,9.3,1699.3,0,3000
1.0841e-13,1.0841e-13,0.26081,105.3,96.863,7.5513,-0.00015719,0.0028468,0.52195,101.93,0,0,0,202.43,10196,-2863,-0.27926,96.863,105.84,0.99745,-0.071338,-2.9346e-05,2.8904e-05,-7.2368e-06,1,-0.071338,-0.99745,-5.1564e-06,-0.0022357,0.002066,0.00066271,0.00061847,-4.7718e-08,7.6477e-07,0.0025581,0.00049309,-4.827e-06,-3.1244e-09,-0.0022578,0.00066271,0.0020881,0.99745,-0.071337,-0.00013118,0.00013067,-1.1793e-05,1,-0.071337,-0.99745,-2.4413e-06,-0.00040007,0.00048201,0.00041114,-2.6399e-09,4.7812e-08,0.00012682,-0.0018356,0.001584,0.00025157,-4.5078e-08,7.1696e-07,0.00049164,1,1,9.36,1699.4,0,3000
9.9532e-14,9.9532e-14,0.26081,105.3,96.863,7.5513,-0.00015719,0.0028468,0.52195,101.93,0,0,0,202.43,10196,-2863,-0.27926,96.863,105.84,0.99745,-0.071338,-2.9346e-05,2.8904e-05,-7.2368e-06,1,-0.071338,-0.99745,-5.1564e-06,-0.0022357,0.002066,0.00066271,0.00061847,-4.7718e-08,7.6477e-07,0.0025581,0.00049309,-4.827e-06,-3.1244e-09,-0.0022578,0.00066271,0.0020881,0.99745,-0.071337,-0.00013118,0.00013067,-1.1793e-05,1,-0.071337,-0.99745,-2.4413e-06,-0.00040007,0.00048201,0.00041114,-2.6399e-09,4.7812e-08,0.00012682,-0.0018356,0.001584,0.00025157,-4.5078e-08,7.1696e-07,0.00049164,1,1,9.42,1699.4,0,3000
9.0668e-14,9.0668e-14,0.26081,105.3,96.863,7.5513,-0.00015719,0.0028468,0.52195,101.93,0,0,0,202.43,10196,-2863,-0.27926,96.863,105.84,0.99745,-0.071338,-2.9346e-05,2.8904e-05,-7.2368e-06,1,-0.071338,-0.99745,-5.1564e-06,-0.0022357,0.002066,0.00066271,0.00061847,-4.7718e-08,7.6477e-07,0.0025581,0.00049309,-4.827e-06,-3.1244e-09,-0.0022578,0.00066271,0.0020881,0.99745,-0.071337,-0.00013118,0.00013067,-1.1793e-05,1,-0.071337,-0.99745,-2.4413e-06,-0.00040007,0.00048201,0.00041114,-2.6399e-09,4.7812e-08,0.00012682,-0.0018356,0.001584,0.00025157,-4.5078e-08,7.1696e-07,0.00049164,1,1,9.48,1699.5,0,3000
8.1787e-14,8.1787e-14,0.26081,105.3,96.863,7.5513,-0.00015719,0.0028468,0.52195,101.93,0,0,0,202.43,10196,-2863,-0.27926,96.863,105.84,0.99745,-0.071338,-2.9346e-05,2.8904e-05,-7.2368e-06,1,-0.071338,-0.99745,-5.1564e-06,-0.0022357,0.002066,0.00066271,0.00061847,-4.7718e-08,7.6477e-07,0.0025581,0.00049309,-4.827e-06,-3.1244e-09,-0.0022578,0.00066271,0.0020881,0.99745,-0.071337,-0.00013118,0.00013067,-1.1793e-05,1,-0.071337,-0.99745,-2.4413e-06,-0.00040007,0.00048201,0.00041114,-2.6399e-09,4.7812e-08,0.00012682,-0.0018356,0.001584,0.00025157,-4.5078e-08,7.1696e-07,0.00049164,1,1,9.54,1699.5,0,3000
7.2923e-14,7.2923e-14,0.26081,105.3,96.863,7.5513,-0.00015719,0.0028468,0.52195,101.93,0,0,0,202.43,10196,-2863,-0.27926,96.863,105.84,0.99745,-0.071338,-2.9346e-05,2.8904e-05,-7.2368e-06,1,-0.071338,-0.99745,-5.1564e-06,-0.0022357,0.002066,0.00066271,0.00061847,-4.7718e-08,7.6477e-07,0.0025581,0.00049309,-4.827e-06,-3.1244e-09,-0.0022578,0.00066271,0.0020881,0.99745,-0.071337,-0.00013118,0.00013067,-1.1793e-05,1,-0.071337,-0.99745,-2.4413e-06,-0.00040007,0.00048201,0.00041114,-2.6399e-09,4.7812e-08,0.00012682,-0.0018356,0.001584,0.00025157,-4.5078e-08,7.1696e-07,0.00049164,1,1,9.6,1699.6,0,3000
6.4041e-14,6.4041e-14,0.26081,105.3,96.863,7.5513,-0.00015719,0.0028468,0.52195,101.93,0,0,0,202.43,10196,-2863,-0.27926,96.863,105.84,0.99745,-0.071338,-2.9346e-05,2.8904e-05,-7.2368e-06,1,-0.071338,-0.99745,-5.1564e-06,-0.0022357,0.002066,0.00066271,0.00061847,-4.7718e-08,7.6477e-07,0.0025581,0.00049309,-4.827e-06,-3.1244e-09,-0.0022578,0.00066271,0.0020881,0.99745,-0.071337,-0.00013118,0.00013067,-1.1793e-05,1,-0.071337,-0.99745,-2.4413e-06,-0.00040007,0.00048201,0.00041114,-2.6399e-09,4.7812e-08,0.00012682,-0.0018356,0.001584,0.00025157,-4.5078e-08,7.1696e-07,0.00049164,1,1,9.66,1699.7,0,3000
5.5178e-14,5.5178e-14,0.26081,105.3,96.863,7.5513,-0.00015719,0.0028468,0.52195,101.93,0,0,0,202.43,10196,-2863,-0.27926,96.863,105.84,0.99745,-0.071338,-2.9346e-05,2.8904e-05,-7.2368e-06,1,-0.071338,-0.99745,-5.1564e-06,-0.0022357,0.002066,0.00066271,0.00061847,-4.7718e-08,7.6477e-07,0.0025581,0.00049309,-4.827e-06,-3.1244e-09,-0.0022578,0.00066271,0.0020881,0.99745,-0.071337,-0.00013118,0.00013067,-1.1793e-05,1,-0.071337,-0.99745,-2.4413e-06,-0.00040007,0.00048201,0.00041114,-2.6399e-09,4.7812e-08,0.00012682,-0.0018356,0.001584,0.00025157,-4.5078e-08,7.1696e-07,0.00049164,1,1,9.72,1699.7,0,3000
4.6296e-14,4.6296e-14,0.26081,105.3,96.863,7.5513,-0.00015719,0.0028468,0.52195,101.93,0,0,0,202.43,10196,-2863,-0.27926,96.863,105.84,0.99745,-0.071338,-2.9346e-05,2.8904e-05,-7.2368e-06,1,-0.071338,-0.99745,-5.1564e-06,-0.0022357,0.002066,0.00066271,0.00061847,-4.7718e-08,7.6477e-07,0.0025581,0.00049309,-4.827e-06,-3.1244e-09,-0.0022578,0.00066271,0.0020881,0.99745,-0.071337,-0.00013118,0.00013067,-1.1793e-05,1,-0.071337,-0.99745,-2.4413e-06,-0.00040007,0.00048201,0.00041114,-2.6399e-09,4.7812e-08,0.00012682,-0.0018356,0.001584,0.00025157,-4.5078e-08,7.1696e-07,0.00049164,1,1,9.78,1699.8,0,3000
3.7433e-14,3.7433e-14,0.26081,105.3,96.863,7.5513,-0.00015719,0.0028468,0.52195,101.93,0,0,0,202.43,10196,-2863,-0.27926,96.863,105.84,0.99745,-0.071338,-2.9346e-05,2.8904e-05,-7.2368e-06,1,-0.071338,-0.99745,-5.1564e-06,-0.0022357,0.002066,0.00066271,0.00061847,-4.7718e-08,7.6477e-07,0.0025581,0.00049309,-4.827e-06,-3.1244e-09,-0.0022578,0.00066271,0.0020881,0.99745,-0.071337,-0.00013118,0.00013067,-1.1793e-05,1,-0.071337,-0.99745,-2.4413e-06,-0.00040007,0.00048201,0.00041114,-2.6399e-09,4.7812e-08,0.00012682,-0.0018356,0.001584,0.00025157,-4.5078e-08,7.1696e-07,0.00049164,1,1,9.84,1699.8,0,3000
2.8551e-14,2.8551e-14,0.26081,105.3,96.863,7.5513,-0.00015719,0.0028468,0.52195,101.93,0,0,0,202.43,10196,-2863,-0.27926,96.863,105.84,0.99745,-0.071338,-2.9346e-05,2.8904e-05,-7.2368e-06,1,-0.071338,-0.99745,-5.1564e-06,-0.0022357,0.002066,0.00066271,0.00061847,-4.7718e-08,7.6477e-07,0.0025581,0.00049309,-4.827e-06,-3.1244e-09,-0.0022578,0.00066271,0.0020881,0.99745,-0.071337,-0.00013118,0.00013067,-1.1793e-05,1,-0.071337,-0.99745,-2.4413e-06,-0.00040007,0.00048201,0.00041114,-2.6399e-09,4.7812e-08,0.00012682,-0.0018356,0.001584,0.00025157,-4.5078e-08,7.1696e-07,0.00049164,1,1,9.9,1699.9,0,3000
1.9688e-14,1.9688e-14,0.26081,105.3,96.863,7.5513,-0.00015719,0.0028468,0.52195,101.93,0,0,0,202.43,10196,-2863,-0.27926,96.863,105.84,0.99745,-0.071338,-2.9346e-05,2.8904e-05,-7.2368e-06,1,-0.071338,-0.99745,-5.1564e-06,-0.0022357,0.002066,0.00066271,0.00061847,-4.7718e-08,7.6477e-07,0.0025581,0.00049309,-4.827e-06,-3.1244e-09,-0.0022578,0.00066271,0.0020881,0.99745,-0.071337,-0.00013118,0.00013067,-1.1793e-05,1,-0.071337,-0.99745,-2.4413e-06,-0.00040007,0.00048201,0.00041114,-2.6399e-09,4.7812e-08,0.00012682,-0.0018356,0.001584,0.00025157,-4.5078e-08,7.1696e-07,0.00049164,1,1,9.96,1700,0,3000
1.0851e-14,1.0851e-14,0.33394,106.98,94.673,7.6668,6.1292e-05,-0.00037193,0.40706,101.93,0,0,0,201.99,10137,-2182.6,-0.21439,94.673,107.53,0.99745,-0.071338,3.9558e-06,-4.1377e-06,-2.4019e-06,1,-0.071338,-0.99745,-2.691e-06,-0.0022341,0.0020635,0.00066263,0.00061788,4.7812e-09,-2.6033e-08,0.0025558,0.00049203,-4.8185e-06,-3.118e-09,-0.0022562,0.00066263,0.0020856,0.99745,-0.071338,4.5066e-06,-4.5681e-06,-6.991e-07,1,-0.071338,-0.99745,-1.0232e-06,-0.00039859,0.000497,0.00039362,1.0294e-09,-6.2465e-09,0.00012876,-0.0018355,0.0015665,0.00026901,3.7518e-09,-1.9787e-08,0.00048912,1,1,10.02,1700,0,3000
2.1203e-15,2.1203e-15,0.33394,106.98,94.673,7.6668,6.1292e-05,-0.00037193,0.40706,101.93,0,0,0,201.99,10137,-2182.6,-0.21439,94.673,107.53,0.99745,-0.071338,3.9558e-06,-4.1377e-06,-2.4019e-06,1,-0.071338,-0.99745,-2.691e-06,-0.0022341,0.0020635,0.00066263,0.00061788,4.7812e-09,-2.6033e-08,0.0025558,0.00049203,-4.8185e-06,-3.118e-09,-0.0022562,0.00066263,0.0020856,0.99745,-0.071338,4.5066e-06,-4.5681e-06,-6.991e-07,1,-0.071338,-0.99745,-1.0232e-06,-0.00039859,0.000497,0.00039362,1.0294e-09,-6.2465e-09,0.00012876,-0.0018355,0.0015665,0.00026901,3.7518e-09,-1.9787e-08,0.00048912,1,1,10.08,1700.1,0,3000
-6.6279e-15,-6.6279e-15,0.33394,106.98,94.673,7.6668,6.1292e-05,-0.00037193,0.40706,101.93,0,0,0,201.99,10137,-2182.6,-0.21439,94.673,107.53,0.99745,-0.071338,3.9558e-06,-4.1377e-06,-2.4019e-06,1,-0.071338,-0.99745,-2.691e-06,-0.0022341,0.0020635,0.00066263,0.00061788,4.7812e-09,-2.6033e-08,0.0025558,0.00049203,-4.8185e-06,-3.118e-09,-0.0022562,0.00066263,0.0020856,0.99745,-0.071338,4.5066e-06,-4.5681e-06,-6.991e-07,1,-0.071338,-0.99745,-1.0232e-06,-0.00039859,0.000497,0.00039362,1.0294e-09,-6.2465e-09,0.00012876,-0.0018355,0.0015665,0.00026901,3.7518e-09,-1.9787e-08,0.00048912,1,1,10.14,1700.1,0,3000
-1.5358e-14,-1.5358e-14,0.33394,106.98,94.673,7.6668,6.1292e-05,-0.00037193,0.40706,101.93,0,0,0,201.99,10137,-2182.6,-0.21439,94.673,107.53,0.99745,-0.071338,3.9558e-06,-4.1377e-06,-2.4019e-06,1,-0.071338,-0.99745,-2.691e-06,-0.0022341,0.0020635,0.00066263,0.00061788,4.7812e-09,-2.6033e-08,0.0025558,0.00049203,-4.8185e-06,-3.118e-09,-0.0022562,0.00066263,0.0020856,0.99745,-0.071338,4.5066e-06,-4.5681e-06,-6.991e-07,1,-0.071338,-0.99745,-1.0232e-06,-0.00039859,0.000497,0.00039362,1.0294e-09,-6.2465e-09,0.00012876,-0.0018355,0.0015665,0.00026901,3.7518e-09,-1.9787e-08,0.00048912,1,1,10.2,1700.2,0,3000
-2.4107e-14,-2.4107e-14,0.33394,106.98,94.673,7.6668,6.1292e-05,-0.00037193,0.40706,101.93,0,0,0,201.99,10137,-2182.6,-0.21439,94.673,107.53,0.99745,-0.071338,3.9558e-06,-4.1377e-06,-2.4019e-06,1,-0.071338,-0.99745,-2.691e-06,-0.0022341,0.0020635,0.00066263,0.00061788,4.7812e-09,-2.6033e-08,0.0025558,0.00049203,-4.8185e-06,-3.118e-09,-0.0022562,0.00066263,0.0020856,0.99745,-0.071338,4.5066e-06,-4.5681e-06,-6.991e-07,1,-0.071338,-0.99745,-1.0232e-06,-0.00039859,0.000497,0.00039362,1.0294e-09,-6.2465e-09,0.00012876,-0.0018355,0.0015665,0.00026901,3.7518e-09,-1.9787e-08,0.00048912,1,1,10.26,1700.3,0,3000
-3.2837e-14,-3.2837e-14,0.33394,106.98,94.673,7.6668,6.1292e-05,-0.00037193,0.40706,101.93,0,0,0,201.99,10137,-2182.6,-0.21439,94.673,107.53,0.99745,-0.071338,3.9558e-06,-4.1377e-06,-2.4019e-06,1,-0.071338,-0.99745,-2.691e-06,-0.0022341,0.0020635,0.00066263,0.00061788,4.7812e-09,-2.6033e-08,0.0025558,0.00049203,-4.8185e-06,-3.118e-09,-0.0022562,0.00066263,0.0020856,0.99745,-0.071338,4.5066e-06,-4.5681e-06,-6.991e-07,1,-0.071338,-0.99745,-1.0232e-06,-0.00039859,0.000497,0.00039362,1.0294e-09,-6.2465e-09,0.00012876,-0.0018355,0.0015665,0.00026901,3.7518e-09,-1.9787e-08,0.00048912,1,1,10.32,1700.3,0,3000
-4.1585e-14,-4.1585e-14,0.33394,106.98,94.673,7.6668,6.1292e-05,-0.00037193,0.40706,101.93,0,0,0,201.99,10137,-2182.6,-0.21439,94.673,107.53,0.99745,-0.071338,3.9558e-06,-4.1377e-06,-2.4019e-06,1,-0.071338,-0.99745,-2.691e-06,-0.0022341,0.0020635,0.00066263,0.00061788,4.7812e-09,-2.6033e-08,0.0025558,0.00049203,-4.8185e-06,-3.118e-09,-0.0022562,0.00066263,0.0020856,0.99745,-0.071338,4.5066e-06,-4.5681e-06,-6.991e-07,1,-0.071338,-0.99745,-1.0232e-06,-0.00039859,0.000497,0.00039362,1.0294e-09,-6.2465e-09,0.00012876,-0.0018355,0.0015665,0.00026901,3.7518e-09,-1.9787e-08,0.00048912,1,1,10.38,1700.4,0,3000
-5.0316e-14,-5.0316e-14,0.33394,106.98,94.673,7.6668,6.1292e-05,-0.00037193,0.40706,101.93,0,0,0,201.99,10137,-2182.6,-0.21439,94.673,107.53,0.99745,-0.071338,3.9558e-06,-4.1377e-06,-2.4019e-06,1,-0.071338,-0.99745,-2.691e-06,-0.0022341,0.0020635,0.00066263,0.00061788,4.7812e-09,-2.6033e-08,0.0025558,0.00049203,-4.8185e-06,-3.118e-09,-0.0022562,0.00066263,0.0020856,0.99745,-0.071338,4.5066e-06,-4.5681e-06,-6.991e-07,1,-0.071338,-0.99745,-1.0232e-06,-0.00039859,0.000497,0.00039362,1.0294e-09,-6.2465e-09,0.00012876,-0.0018355,0.0015665,0.00026901,3.7518e-09,-1.9787e-08,0.00048912,1,1,10.44,1700.4,0,3000
-5.9064e-14,-5.9064e-14,0.33394,106.98,94.673,7.6668,6.1292e-05,-0.00037193,0.40706,101.93,0,0,0,201.99,10137,-2182.6,-0.21439,94.673,107.53,0.99745,-0.071338,3.9558e-06,-4.1377e-06,-2.4019e-06,1,-0.071338,-0.99745,-2.691e-06,-0.0022341,0.0020635,0.00066263,0.00061788,4.7812e-09,-2.6033e-08,0.0025558,0.00049203,-4.8185e-06,-3.118e-09,-0.0022562,0.00066263,0.0020856,0.99745,-0.071338,4.5066e-06,-4.5681e-06,-6.991e-07,1,-0.071338,-0.99745,-1.0232e-06,-0.00039859,0.000497,0.00039362,1.0294e-09,-6.2465e-09,0.00012876,-0.0018355,0.0015665,0.00026901,3.7518e-09,-1.9787e-08,0.00048912,1,1,10.5,1700.5,0,3000
-6.7812e-14,-6.7812e-14,0.33394,106.98,94.673,7.6668,6.1292e-05,-0.00037193,0.40706,101.93,0,0,0,201.99,10137,-2182.6,-0.21439,94.673,107.53,0.99745,-0.071338,3.9558e-06,-4.1377e-06,-2.4019e-06,1,-0.071338,-0.99745,-2.691e-06,-0.0022341,0.0020635,0.00066263,0.00061788,4.7812e-09,-2.6033e-08,0.0025558,0.00049203,-4.8185e-06,-3.118e-09,-0.0022562,0.00066263,0.0020856,0.99745,-0.071338,4.5066e-06,-4.5681e-06,-6.991e-07,1,-0.071338,-0.99745,-1.0232e-06,-0.00039859,0.000497,0.00039362,1.0294e-09,-6.2465e-09,0.00012876,-0.0018355,0.0015665,0.00026901,3.7518e-09,-1.9787e-08,0.00048912,1,1,10.56,1700.6,0,3000
-7.6543e-14,-7.6543e-14,0.33394,106.98,94.673,7.6668,6.1292e-05,-0.00037193,0.40706,101.93,0,0,0,201.99,10137,-2182.6,-0.21439,94.673,107.53,0.99745,-0.071338,3.9558e-06,-4.1377e-06,-2.4019e-06,1,-0.071338,-0.99745,-2.691e-06,-0.0022341,0.0020635,0.00066263,0.00061788,4.7812e-09,-2.6033e-08,0.0025558,0.00049203,-4.8185e-06,-3.118e-09,-0.0022562,0.00066263,0.0020856,0.99745,-0.071338,4.5066e-06,-4.5681e-06,-6.991e-07,1,-0.071338,-0.99745,-1.0232e-06,-0.00039859,0.000497,0.00039362,1.0294e-09,-6.2465e-09,0.00012876,-0.0018355,0.0015665,0.00026901,3.7518e-09,-1.9787e-08,0.00048912,1,1,10.62,1700.6,0,3000
-8.5291e-14,-8.5291e-14,0.33394,106.98,94.673,7.6668,6.1292e-05,-0.00037193,0.40706,101.93,0,0,0,201.99,10137,-2182.6,-0.21439,94.673,107.53,0.99745,-0.071338,3.9558e-06,-4.1377e-06,-2.4019e-06,1,-0.071338,-0.99745,-2.691e-06,-0.0022341,0.0020635,0.00066263,0.00061788,4.7812e-09,-2.6033e-08,0.0025558,0.00049203,-4.8185e-06,-3.118e-09,-0.0022562,0.00066263,0.0020856,0.99745,-0.071338,4.5066e-06,-4.5681e-06,-6.991e-07,1,-0.071338,-0.99745,-1.0232e-06,-0.00039859,0.000497,0.00039362,1.0294e-09,-6.2465e-09,0.00012876,-0.0018355,0.0015665,0.00026901,3.7518e-09,-1.9787e-08,0.00048912,1,1,10.68,1700.7,0,3000
-9.4021e-14,-9.4021e-14,0.33394,106.98,94.673,7.6668,6.1292e-05,-0.00037193,0.40706,101.93,0,0,0,201.99,10137,-2182.6,-0.21439,94.673,107.53,0.99745,-0.071338,3.9558e-06,-4.1377e-06,-2.4019e-06,1,-0.071338,-0.99745,-2.691e-06,-0.0022341,0.0020635,0.00066263,0.00061788,4.7812e-09,-2.6033e-08,0.0025558,0.00049203,-4.8185e-06,-3.118e-09,-0.0022562,0.00066263,0.0020856,0.99745,-0.071338,4.5066e-06,-4.5681e-06,-6.991e-07,1,-0.071338,-0.99745,-1.0232e-06,-0.00039859,0.000497,0.00039362,1.0294e-09,-6.2465e-09,0.00012876,-0.0018355,0.0015665,0.00026901,3.7518e-09,-1.9787e-08,0.00048912,1,1,10.74,1700.7,0,3000
-1.0277e-13,-1.0277e-13,0.33394,106.98,94.673,7.6668,6.1292e-05,-0.00037193,0.40706,101.93,0,0,0,201.99,10137,-2182.6,-0.21439,94.673,107.53,0.99745,-0.071338,3.9558e-06,-4.1377e-06,-2.4019e-06,1,-0.071338,-0.99745,-2.691e-06,-0.0022341,0.0020635,0.00066263,0.00061788,4.7812e-09,-2.6033e-08,0.0025558,0.00049203,-4.8185e-06,-3.118e-09,-0.0022562,0.00066263,0.0020856,0.99745,-0.071338,4.5066e-06,-4.5681e-06,-6.991e-07,1,-0.071338,-0.99745,-1.0232e-06,-0.00039859,0.000497,0.00039362,1.0294e-09,-6.2465e-09,0.00012876,-0.0018355,0.0015665,0.00026901,3.7518e-09,-1.9787e-08,0.00048912,1,1,10.8,1700.8,0,3000
-1.115e-13,-1.115e-13,0.33394,106.98,94.673,7.6668,6.1292e-05,-0.00037193,0.40706,101.93,0,0,0,201.99,10137,-2182.6,-0.21439,94.673,107.53,0.99745,-0.071338,3.9558e-06,-4.1377e-06,-2.4019e-06,1,-0.071338,-0.99745,-2.691e-06,-0.0022341,0.0020635,0.00066263,0.00061788,4.7812e-09,-2.6033e-08,0.0025558,0.00049203,-4.8185e-06,-3.118e-09,-0.0022562,0.00066263,0.0020856,0.99745,-0.071338,4.5066e-06,-4.5681e-06,-6.991e-07,1,-0.071338,-0.99745,-1.0232e-06,-0.00039859,0.000497,0.00039362,1.0294e-09,-6.2465e-09,0.00012876,-0.0018355,0.0015665,0.00026901,3.7518e-09,-1.9787e-08,0.00048912,1,1,10.86,1700.9,0,3000
-1.2025e-13,-1.2025e-13,0.33394,106.98,94.673,7.6668,6.1292e-05,-0.00037193,0.40706,101.93,0,0,0,201.99,10137,-2182.6,-0.21439,94.673,107.53,0.99745,-0.071338,3.9558e-06,-4.1377e-06,-2.4019e-06,1,-0.071338,-0.99745,-2.691e-06,-0.0022341,0.0020635,0.00066263,0.00061788,4.7812e-09,-2.6033e-08,0.0025558,0.00049203,-4.8185e-06,-3.118e-09,-0.0022562,0.00066263,0.0020856,0.99745,-0.071338,4.5066e-06,-4.5681e-06,-6.991e-07,1,-0.071338,-0.99745,-1.0232e-06,-0.00039859,0.000497,0.00039362,1.0294e-09,-6.2465e-09,0.00012876,-0.0018355,0.0015665,0.00026901,3.7518e-09,-1.9787e-08,0.00048912,1,1,10.92,1700.9,0,3000
-1.2898e-13,-1.2898e-13,0.33394,106.98,94.673,7.6668,6.1292e-05,-0.00037193,0.40706,101.93,0,0,0,201.99,10137,-2182.6,-0.21439,94.673,107.53,0.99745,-0.071338,3.9558e-06,-4.1377e-06,-2.4019e-06,1,-0.071338,-0.99745,-2.691e-06,-0.0022341,0.0020635,0.00066263,0.00061788,4.7812e-09,-2.6033e-08,0.0025558,0.00049203,-4.8185e-06,-3.118e-09,-0.0022562,0.00066263,0.0020856,0.99745,-0.071338,4.5066e-06,-4.5681e-06,-6.991e-07,1,-0.071338,-0.99745,-1.0232e-06,-0.00039859,0.000497,0.00039362,1.0294e-09,-6.2465e-09,0.00012876,-0.0018355,0.0015665,0.00026901,3.7518e-09,-1.9787e-08,0.00048912,1,1,10.98,1701,0,3000
-1.291e-13,-1.291e-13,0.40789,108.72,92.086,7.7864,0.00025852,-0.0031806,0.3419,101.92,0,0,0,201.21,10033,-1499.4,-0.149,92.086,109.28,0.99745,-0.071338,3.4596e-05,-3.4636e-05,6.718e-07,1,-0.071338,-0.99745,-1.8008e-06,-0.0022333,0.0020609,0.00066255,0.00061741,3.223e-08,-4.2989e-07,0.002554,0.00049014,-4.8123e-06,-3.1127e-09,-0.0022554,0.00066255,0.002083,0.99745,-0.071338,7.3869e-05,-7.3718e-05,4.7501e-06,1,-0.071338,-0.99745,-5.2093e-07,-0.00039643,0.00051313,0.00037344,4.3418e-09,-5.3418e-08,0.00013077,-0.0018369,0.0015478,0.00028911,2.7888e-08,-3.7647e-07,0.00048664,1,1,11.04,1701,0,3000
-1.2492e-13,-1.2492e-13,0.40789,108.72,92.086,7.7864,0.00025852,-0.0031806,0.3419,101.92,0,0,0,201.21,10033,-1499.4,-0.149,92.086,109.28,0.99745,-0.071338,3.4596e-05,-3.4636e-05,6.718e-07,1,-0.071338,-0.99745,-1.8008e-06,-0.0022333,0.0020609,0.00066255,0.00061741,3.223e-08,-4.2989e-07,0.002554,0.00049014,-4.8123e-06,-3.1127e-09,-0.0022554,0.00066255,0.002083,0.99745,-0.071338,7.3869e-05,-7.3718e-05,4.7501e-06,1,-0.071338,-0.99745,-5.2093e-07,-0.00039643,0.00051313,0.00037344,4.3418e-09,-5.3418e-08,0.00013077,-0.0018369,0.0015478,0.00028911,2.7888e-08,-3.7647e-07,0.00048664,1,1,11.1,1701.1,0,3000
-1.2074e-13,-1.2074e-13,0.40789,108.72,92.086,7.7864,0.00025852,-0.0031806,0.3419,101.92,0,0,0,201.21,10033,-1499.4,-0.149,92.086,109.28,0.99745,-0.071338,3.4596e-05,-3.4636e-05,6.718e-07,1,-0.071338,-0.99745,-1.8008e-06,-0.0022333,0.0020609,0.00066255,0.00061741,3.223e-08,-4.2989e-07,0.002554,0.00049014,-4.8123e-06,-3.1127e-09,-0.0022554,0.00066255,0.002083,0.99745,-0.071338,7.3869e-05,-7.3718e-05,4.7501e-06,1,-0.071338,-0.99745,-5.2093e-07,-0.00039643,0.00051313,0.00037344,4.3418e-09,-5.3418e-08,0.00013077,-0.0018369,0.0015478,0.00028911,2.7888e-08,-3.7647e-07,0.00048664,1,1,11.16,1701.2,0,3000
-1.1656e-13,-1.1656e-13,0.40789,108.72,92.086,7.7864,0.00025852,-0.0031806,0.3419,101.92,0,0,0,201.21,10033,-1499.4,-0.149,92.086,109.28,0.99745,-0.071338,3.4596e-05,-3.4636e-05,6.718e-07,1,-0.071338,-0.99745,-1.8008e-06,-0.0022333,0.0020609,0.00066255,0.00061741,3.223e-08,-4.2989e-07,0.002554,0.00049014,-4.8123e-06,-3.1127e-09,-0.0022554,0.00066255,0.002083,0.99745,-0.071338,7.3869e-05,-7.3718e-05,4.7501e-06,1,-0.071338,-0.99745,-5.2093e-07,-0.00039643,0.00051313,0.00037344,4.3418e-09,-5.3418e-08,0.00013077,-0.0018369,0.0015478,0.00028911,2.7888e-08,-3.7647e-07,0.00048664,1,1,11.22,1701.2,0,3000
-1.1237e-13,-1.1237e-13,0.40789,108.72,92.086,7.7864,0.00025852,-0.0031806,0.3419,101.92,0,0,0,201.21,10033,-1499.4,-0.149,92.086,109.28,0.99745,-0.071338,3.4596e-05,-3.4636e-05,6.718e-07,1,-0.071338,-0.99745,-1.8008e-06,-0.0022333,0.0020609,0.00066255,0.00061741,3.223e-08,-4.2989e-07,0.002554,0.00049014,-4.8123e-06,-3.1127e-09,-0.0022554,0.00066255,0.002083,0.99745,-0.071338,7.3869e-05,-7.3718e-05,4.7501e-06,1,-0.071338,-0.99745,-5.2093e-07,-0.00039643,0.00051313,0.00037344,4.3418e-09,-5.3418e-08,0.00013077,-0.0018369,0.0015478,0.00028911,2.7888e-08,-3.7647e-07,0.00048664,1,1,11.28,1701.3,0,3000
-1.0819e-13,-1.0819e-13,0.40789,108.72,92.086,7.7864,0.00025852,-0.0031806,0.3419,101.92,0,0,0,201.21,10033,-1499.4,-0.149,92.086,109.28,0.99745,-0.071338,3.4596e-05,-3.4636e-05,6.718e-07,1,-0.071338,-0.99745,-1.8008e-06,-0.0022333,0.0020609,0.00066255,0.00061741,3.223e-08,-4.2989e-07,0.002554,0.00049014,-4.8123e-06,-3.1127e-09,-0.0022554,0.00066255,0.002083,0.99745,-0.071338,7.3869e-05,-7.3718e-05,4.7501e-06,1,-0.071338,-0.99745,-5.2093e-07,-0.00039643,0.00051313,0.00037344,4.3418e-09,-5.3418e-08,0.00013077,-0.0018369,0.0015478,0.00028911,2.7888e-08,-3.7647e-07,0.00048664,1,1,11.34,1701.3,0,3000
-1.04e-13,-1.04e-13,0.40789,108.72,92.086,7.7864,0.00025852,-0.0031806,0.3419,101.92,0,0,0,201.21,10033,-1499.4,-0.149,92.086,109.28,0.99745,-0.071338,3.4596e-05,-3.4636e-05,6.718e-07,1,-0.071338,-0.99745,-1.8008e-06,-0.0022333,0.0020609,0.00066255,0.00061741,3.223e-08,-4.2989e-07,0.002554,0.00049014,-4.8123e-06,-3.1127e-09,-0.0022554,0.00066255,0.002083,0.99745,-0.071338,7.3869e-05,-7.3718e-05,4.7501e-06,1,-0.071338,-0.99745,-5.2093e-07,-0.00039643,0.00051313,0.00037344,4.3418e-09,-5.3418e-08,0.00013077,-0.0018369,0.0015478,0.00028911,2.7888e-08,-3.7647e-07,0.00048664,1,1,11.4,1701.4,0,3000
-9.9825e-14,-9.9825e-14,0.40789,108.72,92.086,7.7864,0.00025852,-0.0031806,0.3419,101.92,0,0,0,201.21,10033,-1499.4,-0.149,92.086,109.28,0.99745,-0.071338,3.4596e-05,-3.4636e-05,6.718e-07,1,-0.071338,-0.99745,-1.8008e-06,-0.0022333,0.0020609,0.00066255,0.00061741,3.223e-08,-4.2989e-07,0.002554,0.00049014,-4.8123e-06,-3.1127e-09,-0.0022554,0.00066255,0.002083,0.99745,-0.071338,7.3869e-05,-7.3718e-05,4.7501e-06,1,-0.071338,-0.99745,-5.2093e-07,-0.00039643,0.00051313,0.00037344,4.3418e-09,-5.3418e-08,0.00013077,-0.0018369,0.0015478,0.00028911,2.7888e-08,-3.7647e-07,0.00048664,1,1,11.46,1701.5,0,3000
-9.5638e-14,-9.5638e-14,0.40789,108.72,92.086,7.7864,0.00025852,-0.0031806,0.3419,101.92,0,0,0,201.21,10033,-1499.4,-0.149,92.086,109.28,0.99745,-0.071338,3.4596e-05,-3.4636e-05,6.718e-07,1,-0.071338,-0.99745,-1.8008e-06,-0.0022333,0.0020609,0.00066255,0.00061741,3.223e-08,-4.2989e-07,0.002554,0.00049014,-4.8123e-06,-3.1127e-09,-0.0022554,0.00066255,0.002083,0.99745,-0.071338,7.3869e-05,-7.3718e-05,4.7501e-06,1,-0.071338,-0.99745,-5.2093e-07,-0.00039643,0.00051313,0.00037344,4.3418e-09,-5.3418e-08,0.00013077,-0.0018369,0.0015478,0.00028911,2.7888e-08,-3.7647e-07,0.00048664,1,1,11.52,1701.5,0,3000
-9.1459e-14,-9.1459e-14,0.40789,108.72,92.086,7.7864,0.00025852,-0.0031806,0.3419,101.92,0,0,0,201.21,10033,-1499.4,-0.149,92.086,109.28,0.99745,-0.071338,3.4596e-05,-3.4636e-05,6.718e-07,1,-0.071338,-0.99745,-1.8008e-06,-0.0022333,0.0020609,0.00066255,0.00061741,3.223e-08,-4.2989e-07,0.002554,0.00049014,-4.8123e-06,-3.1127e-09,-0.0022554,0.00066255,0.002083,0.99745,-0.071338,7.3869e-05,-7.3718e-05,4.7501e-06,1,-0.071338,-0.99745,-5.2093e-07,-0.00039643,0.00051313,0.00037344,4.3418e-09,-5.3418e-08,0.00013077,-0.0018369,0.0015478,0.00028911,2.7888e-08,-3.7647e-07,0.00048664,1,1,11.58,1701.6,0,3000
-8.7271e-14,-8.7271e-14,0.40789,108.72,92.086,7.7864,0.00025852,-0.0031806,0.3419,101.92,0,0,0,201.21,10033,-1499.4,-0.149,92.086,109.28,0.99745,-0.071338,3.4596e-05,-3.4636e-05,6.718e-07,1,-0.071338,-0.99745,-1.8008e-06,-0.0022333,0.0020609,0.00066255,0.00061741,3.223e-08,-4.2989e-07,0.002554,0.00049014,-4.8123e-06,-3.1127e-09,-0.0022554,0.00066255,0.002083,0.99745,-0.071338,7.3869e-05,-7.3718e-05,4.7501e-06,1,-0.071338,-0.99745,-5.2093e-07,-0.00039643,0.00051313,0.00037344,4.3418e-09,-5.3418e-08,0.00013077,-0.0018369,0.0015478,0.00028911,2.7888e-08,-3.7647e-07,0.00048664,1,1,11.64,1701.6,0,3000
-8.3092e-14,-8.3092e-14,0.40789,108.72,92.086,7.7864,0.00025852,-0.0031806,0.3419,101.92,0,0,0,201.21,10033,-1499.4,-0.149,92.086,109.28,0.99745,-0.071338,3.4596e-05,-3.4636e-05,6.718e-07,1,-0.071338,-0.99745,-1.8008e-06,-0.0022333,0.0020609,0.00066255,0.00061741,3.223e-08,-4.2989e-07,0.002554,0.00049014,-4.8123e-06,-3.1127e-09,-0.0022554,0.00066255,0.002083,0.99745,-0.071338,7.3869e-05,-7.3718e-05,4.7501e-06,1,-0.071338,-0.99745,-5.2093e-07,-0.00039643,0.00051313,0.00037344,4.3418e-09,-5.3418e-08,0.00013077,-0.0018369,0.0015478,0.00028911,2.7888e-08,-3.7647e-07,0.00048664,1,1,11.7,1701.7,0,3000
-7.8905e-14,-7.8905e-14,0.40789,108.72,92.086,7.7864,0.00025852,-0.0031806,0.3419,101.92,0,0,0,201.21,10033,-1499.4,-0.149,92.086,109.28,0.99745,-0.071338,3.4596e-05,-3.4636e-05,6.718e-07,1,-0.071338,-0.99745,-1.8008e-06,-0.0022333,0.0020609,0.00066255,0.00061741,3.223e-08,-4.2989e-07,0.002554,0.00049014,-4.8123e-06,-3.1127e-09,-0.0022554,0.00066255,0.002083,0.99745,-0.071338,7.3869e-05,-7.3718e-05,4.7501e-06,1,-0.071338,-0.99745,-5.2093e-07,-0.00039643,0.00051313,0.00037344,4.3418e-09,-5.3418e-08,0.00013077,-0.0018369,0.0015478,0.00028911,2.7888e-08,-3.7647e-07,0.00048664,1,1,11.76,1701.8,0,3000
-7.4726e-14,-7.4726e-14,0.40789,108.72,92.086,7.7864,0.00025852,-0.0031806,0.3419,101.92,0,0,0,201.21,10033,-1499.4,-0.149,92.086,109.28,0.99745,-0.071338,3.4596e-05,-3.4636e-05,6.718e-07,1,-0.071338,-0.99745,-1.8008e-06,-0.0022333,0.0020609,0.00066255,0.00061741,3.223e-08,-4.2989e-07,0.002554,0.00049014,-4.8123e-06,-3.1127e-09,-0.0022554,0.00066255,0.002083,0.99745,-0.071338,7.3869e-05,-7.3718e-05,4.7501e-06,1,-0.071338,-0.99745,-5.2093e-07,-0.00039643,0.00051313,0.00037344,4.3418e-09,-5.3418e-08,0.00013077,-0.0018369,0.0015478,0.00028911,2.7888e-08,-3.7647e-07,0.00048664,1,1,11.82,1701.8,0,3000
-7.0539e-14,-7.0539e-14,0.40789,108.72,92.086,7.7864,0.00025852,-0.0031806,0.3419,101.92,0,0,0,201.21,10033,-1499.4,-0.149,92.086,109.28,0.99745,-0.071338,3.4596e-05,-3.4636e-05,6.718e-07,1,-0.071338,-0.99745,-1.8008e-06,-0.0022333,0.0020609,0.00066255,0.00061741,3.223e-08,-4.2989e-07,0.002554,0.00049014,-4.8123e-06,-3.1127e-09,-0.0022554,0.00066255,0.002083,0.99745,-0.071338,7.3869e-05,-7.3718e-05,4.7501e-06,1,-0.071338,-0.99745,-5.2093e-07,-0.00039643,0.00051313,0.00037344,4.3418e-09,-5.3418e-08,0.00013077,-0.0018369,0.0015478,0.00028911,2.7888e-08,-3.7647e-07,0.00048664,1,1,11.88,1701.9,0,3000
-6.636e-14,-6.636e-14,0.40789,108.72,92.086,7.7864,0.00025852,-0.0031806,0.3419,101.92,0,0,0,201.21,10033,-1499.4,-0.149,92.086,109.28,0.99745,-0.071338,3.4596e-05,-3.4636e-05,6.718e-07,1,-0.071338,-0.99745,-1.8008e-06,-0.0022333,0.0020609,0.00066255,0.00061741,3.223e-08,-4.2989e-07,0.002554,0.00049014,-4.8123e-06,-3.1127e-09,-0.0022554,0.00066255,0.002083,0.99745,-0.071338,7.3869e-05,-7.3718e-05,4.7501e-06,1,-0.071338,-0.99745,-5.2093e-07,-0.00039643,0.00051313,0.00037344,4.3418e-09,-5.3418e-08,0.00013077,-0.0018369,0.0015478,0.00028911,2.7888e-08,-3.7647e-07,0.00048664,1,1,11.94,1701.9,0,3000
-6.2172e-14,-6.2172e-14,0.40789,108.72,92.086,7.7864,0.00025852,-0.0031806,0.3419,101.92,0,0,0,201.21,10033,-1499.4,-0.149,92.086,109.28,0.99745,-0.071338,3.4596e-05,-3.4636e-05,6.718e-07,1,-0.071338,-0.99745,-1.8008e-06,-0.0022333,0.0020609,0.00066255,0.00061741,3.223e-08,-4.2989e-07,0.002554,0.00049014,-4.8123e-06,-3.1127e-09,-0.0022554,0.00066255,0.002083,0.99745,-0.071338,7.3869e-05,-7.3718e-05,4.7501e-06,1,-0.071338,-0.99745,-5.2093e-07,-0.00039643,0.00051313,0.00037344,4.3418e-09,-5.3418e-08,0.00013077,-0.0018369,0.0015478,0.00028911,2.7888e-08,-3.7647e-07,0.00048664,1,1,12,1702,0,3000
-6.3799e-14,-6.3799e-14,0.48049,110.13,89.726,7.8823,0.00042551,-0.0054761,0.30552,101.92,0,0,0,200.33,9915.2,-826.94,-0.083261,89.726,110.69,0.99745,-0.071338,6.1157e-05,-6.1116e-05,2.7564e-06,1,-0.071338,-0.99745,-1.6106e-06,-0.0022329,0.0020584,0.00066247,0.00061698,4.5654e-08,-6.2247e-07,0.0025524,0.00048799,-4.8068e-06,-3.1078e-09,-0.0022549,0.00066247,0.0020804,0.99745,-0.071338,0.00010697,-0.00010673,7.2328e-06,1,-0.071338,-0.99745,-3.9926e-07,-0.00039407,0.00052669,0.00035537,7.1463e-09,-9.1971e-08,0.00013238,-0.0018388,0.0015317,0.00030709,3.8508e-08,-5.305e-07,0.00048459,1,1,12.06,1702.1,0,3000
-6.5423e-14,-6.5423e-14,0.48049,110.13,89.726,7.8823,0.00042551,-0.0054761,0.30552,101.92,0,0,0,200.33,9915.2,-826.94,-0.083261,89.726,110.69,0.99745,-0.071338,6.1157e-05,-6.1116e-05,2.7564e-06,1,-0.071338,-0.99745,-1.6106e-06,-0.0022329,0.0020584,0.00066247,0.00061698,4.5654e-08,-6.2247e-07,0.0025524,0.00048799,-4.8068e-06,-3.1078e-09,-0.0022549,0.00066247,0.0020804,0.99745,-0.071338,0.00010697,-0.00010673,7.2328e-06,1,-0.071338,-0.99745,-3.9926e-07,-0.00039407,0.00052669,0.00035537,7.1463e-09,-9.1971e-08,0.00013238,-0.0018388,0.0015317,0.00030709,3.8508e-08,-5.305e-07,0.00048459,1,1,12.12,1702.1,0,3000
-6.705e-14,-6.705e-14,0.48049,110.13,89.726,7.8823,0.00042551,-0.0054761,0.30552,101.92,0,0,0,200.33,9915.2,-826.94,-0.083261,89.726,110.69,0.99745,-0.071338,6.1157e-05,-6.1116e-05,2.7564e-06,1,-0.071338,-0.99745,-1.6106e-06,-0.0022329,0.0020584,0.00066247,0.00061698,4.5654e-08,-6.2247e-07,0.0025524,0.00048799,-4.8068e-06,-3.1078e-09,-0.0022549,0.00066247,0.0020804,0.99745,-0.071338,0.00010697,-0.00010673,7.2328e-06,1,-0.071338,-0.99745,-3.9926e-07,-0.00039407,0.00052669,0.00035537,7.1463e-09,-9.1971e-08,0.00013238,-0.0018388,0.0015317,0.00030709,3.8508e-08,-5.305e-07,0.00048459,1,1,12.18,1702.2,0,3000
-6.8674e-14,-6.8674e-14,0.48049,110.13,89.726,7.8823,0.00042551,-0.0054761,0.30552,101.92,0,0,0,200.33,9915.2,-826.94,-0.083261,89.726,110.69,0.99745,-0.071338,6.1157e-05,-6.1116e-05,2.7564e-06,1,-0.071338,-0.99745,-1.6106e-06,-0.0022329,0.0020584,0.00066247,0.00061698,4.5654e-08,-6.2247e-07,0.0025524,0.00048799,-4.8068e-06,-3.1078e-09,-0.0022549,0.00066247,0.0020804,0.99745,-0.071338,0.00010697,-0.00010673,7.2328e-06,1,-0.071338,-0.99745,-3.9926e-07,-0.00039407,0.00052669,0.00035537,7.1463e-09,-9.1971e-08,0.00013238,-0.0018388,0.0015317,0.00030709,3.8508e-08,-5.305e-07,0.00048459,1,1,12.24,1702.2,0,3000
-7.0301e-14,-7.0301e-14,0.48049,110.13,89.726,7.8823,0.00042551,-0.0054761,0.30552,101.92,0,0,0,200.33,9915.2,-826.94,-0.083261,89.726,110.69,0.99745,-0.071338,6.1157e-05,-6.1116e-05,2.7564e-06,1,-0.071338,-0.99745,-1.6106e-06,-0.0022329,0.0020584,0.00066247,0.00061698,4.5654e-08,-6.2247e-07,0.0025524,0.00048799,-4.8068e-06,-3.1078e-09,-0.0022549,0.00066247,0.0020804,0.99745,-0.071338,0.00010697,-0.00010673,7.2328e-06,1,-0.071338,-0.99745,-3.9926e-07,-0.00039407,0.00052669,0.00035537,7.1463e-09,-9.1971e-08,0.00013238,-0.0018388,0.0015317,0.00030709,3.8508e-08,-5.305e-07,0.00048459,1,1,12.3,1702.3,0,3000
-7.1924e-14,-7.1924e-14,0.48049,110.13,89.726,7.8823,0.00042551,-0.0054761,0.30552,101.92,0,0,0,200.33,9915.2,-826.94,-0.083261,89.726,110.69,0.99745,-0.071338,6.1157e-05,-6.1116e-05,2.7564e-06,1,-0.071338,-0.99745,-1.6106e-06,-0.0022329,0.0020584,0.00066247,0.00061698,4.5654e-08,-6.2247e-07,0.0025524,0.00048799,-4.8068e-06,-3.1078e-09,-0.0022549,0.00066247,0.0020804,0.99745,-0.071338,0.00010697,-0.00010673,7.2328e-06,1,-0.071338,-0.99745,-3.9926e-07,-0.00039407,0.00052669,0.00035537,7.1463e-09,-9.1971e-08,0.00013238,-0.0018388,0.0015317,0.00030709,3.8508e-08,-5.305e-07,0.00048459,1,1,12.36,1702.4,0,3000
-7.3551e-14,-7.3551e-14,0.48049,110.13,89.726,7.8823,0.00042551,-0.0054761,0.30552,101.92,0,0,0,200.33,9915.2,-826.94,-0.083261,89.726,110.69,0.99745,-0.071338,6.1157e-05,-6.1116e-05,2.7564e-06,1,-0.071338,-0.99745,-1.6106e-06,-0.0022329,0.0020584,0.00066247,0.00061698,4.5654e-08,-6.2247e-07,0.0025524,0.00048799,-4.8068e-06,-3.1078e-09,-0.0022549,0.00066247,0.0020804,0.99745,-0.071338,0.00010697,-0.00010673,7.2328e-06,1,-0.071338,-0.99745,-3.9926e-07,-0.00039407,0.00052669,0.00035537,7.1463e-09,-9.1971e-08,0.00013238,-0.0018388,0.0015317,0.00030709,3.8508e-08,-5.305e-07,0.00048459,1,1,12.42,1702.4,0,3000
-7.5175e-14,-7.5175e-14,0.48049,110.13,89.726,7.8823,0.00042551,-0.0054761,0.30552,101.92,0,0,0,200.33,9915.2,-826.94,-0.083261,89.726,110.69,0.99745,-0.071338,6.1157e-05,-6.1116e-05,2.7564e-06,1,-0.071338,-0.99745,-1.6106e-06,-0.0022329,0.0020584,0.00066247,0.00061698,4.5654e-08,-6.2247e-07,0.0025524,0.00048799,-4.8068e-06,-3.1078e-09,-0.0022549,0.00066247,0.0020804,0.99745,-0.071338,0.00010697,-0.00010673,7.2328e-06,1,-0.071338,-0.99745,-3.9926e-07,-0.00039407,0.00052669,0.00035537,7.1463e-09,-9.1971e-08,0.00013238,-0.0018388,0.0015317,0.00030709,3.8508e-08,-5.305e-07,0.00048459,1,1,12.48,1702.5,0,3000
-7.6802e-14,-7.6802e-14,0.48049,110.13,89.726,7.8823,0.00042551,-0.0054761,0.30552,101.92,0,0,0,200.33,9915.2,-826.94,-0.083261,89.726,110.69,0.99745,-0.071338,6.1157e-05,-6.1116e-05,2.7564e-06,1,-0.071338,-0.99745,-1.6106e-06,-0.0022329,0.0020584,0.00066247,0.00061698,4.5654e-08,-6.2247e-07,0.0025524,0.00048799,-4.8068e-06,-3.1078e-09,-0.0022549,0.00066247,0.0020804,0.99745,-0.071338,0.00010697,-0.00010673,7.2328e-06,1,-0.071338,-0.99745,-3.9926e-07,-0.00039407,0.00052669,0.00035537,7.1463e-09,-9.1971e-08,0.00013238,-0.0018388,0.0015317,0.00030709,3.8508e-08,-5.305e-07,0.00048459,1,1,12.54,1702.5,0,3000
-7.8425e-14,-7.8425e-14,0.48049,110.13,89.726,7.8823,0.00042551,-0.0054761,0.30552,101.92,0,0,0,200.33,9915.2,-826.94,-0.083261,89.726,110.69,0.99745,-0.071338,6.1157e-05,-6.1116e-05,2.7564e-06,1,-0.071338,-0.99745,-1.6106e-06,-0.0022329,0.0020584,0.00066247,0.00061698,4.5654e-08,-6.2247e-07,0.0025524,0.00048799,-4.8068e-06,-3.1078e-09,-0.0022549,0.00066247,0.0020804,0.99745,-0.071338,0.00010697,-0.00010673,7.2328e-06,1,-0.071338,-0.99745,-3.9926e-07,-0.00039407,0.00052669,0.00035537,7.1463e-09,-9.1971e-08,0.00013238,-0.0018388,0.0015317,0.00030709,3.8508e-08,-5.305e-07,0.00048459,1,1,12.6,1702.6,0,3000
-8.0052e-14,-8.0052e-14,0.48049,110.13,89.726,7.8823,0.00042551,-0.0054761,0.30552,101.92,0,0,0,200.33,9915.2,-826.94,-0.083261,89.726,110.69,0.99745,-0.071338,6.1157e-05,-6.1116e-05,2.7564e-06,1,-0.071338,-0.99745,-1.6106e-06,-0.0022329,0.0020584,0.00066247,0.00061698,4.5654e-08,-6.2247e-07,0.0025524,0.00048799,-4.8068e-06,-3.1078e-09,-0.0022549,0.00066247,0.0020804,0.99745,-0.071338,0.00010697,-0.00010673,7.2328e-06,1,-0.071338,-0.99745,-3.9926e-07,-0.00039407,0.00052669,0.00035537,7.1463e-09,-9.1971e-08,0.00013238,-0.0018388,0.0015317,0.00030709,3.8508e-08,-5.305e-07,0.00048459,1,1,12.66,1702.7,0,3000
-8.1676e-14,-8.1676e-14,0.48049,110.13,89.726,7.8823,0.00042551,-0.0054761,0.30552,101.92,0,0,0,200.33,9915.2,-826.94,-0.083261,89.726,110.69,0.99745,-0.071338,6.1157e-05,-6.1116e-05,2.7564e-06,1,-0.071338,-0.99745,-1.6106e-06,-0.0022329,0.0020584,0.00066247,0.00061698,4.5654e-08,-6.2247e-07,0.0025524,0.00048799,-4.8068e-06,-3.1078e-09,-0.0022549,0.00066247,0.0020804,0.99745,-0.071338,0.00010697,-0.00010673,7.2328e-06,1,-0.071338,-0.99745,-3.9926e-07,-0.00039407,0.00052669,0.00035537,7.1463e-09,-9.1971e-08,0.00013238,-0.0018388,0.0015317,0.00030709,3.8508e-08,-5.305e-07,0.00048459,1,1,12.72,1702.7,0,3000
-8.3303e-14,-8.3303e-14,0.48049,110.13,89.726,7.8823,0.00042551,-0.0054761,0.30552,101.92,0,0,0,200.33,9915.2,-826.94,-0.083261,89.726,110.69,0.99745,-0.071338,6.1157e-05,-6.1116e-05,2.7564e-06,1,-0.071338,-0.99745,-1.6106e-06,-0.0022329,0.0020584,0.00066247,0.00061698,4.5654e-08,-6.2247e-07,0.0025524,0.00048799,-4.8068e-06,-3.1078e-09,-0.0022549,0.00066247,0.0020804,0.99745,-0.071338,0.00010697,-0.00010673,7.2328e-06,1,-0.071338,-0.99745,-3.9926e-07,-0.00039407,0.00052669,0.00035537,7.1463e-09,-9.1971e-08,0.00013238,-0.0018388,0.0015317,0.00030709,3.8508e-08,-5.305e-07,0.00048459,1,1,12.78,1702.8,0,3000
-8.4927e-14,-8.4927e-14,0.48049,110.13,89.726,7.8823,0.00042551,-0.0054761,0.30552,101.92,0,0,0,200.33,9915.2,-826.94,-0.083261,89.726,110.69,0.99745,-0.071338,6.1157e-05,-6.1116e-05,2.7564e-06,1,-0.071338,-0.99745,-1.6106e-06,-0.0022329,0.0020584,0.00066247,0.00061698,4.5654e-08,-6.2247e-07,0.0025524,0.00048799,-4.8068e-06,-3.1078e-09,-0.0022549,0.00066247,0.0020804,0.99745,-0.071338,0.00010697,-0.00010673,7.2328e-06,1,-0.071338,-0.99745,-3.9926e-07,-0.00039407,0.00052669,0.00035537,7.1463e-09,-9.1971e-08,0.00013238,-0.0018388,0.0015317,0.00030709,3.8508e-08,-5.305e-07,0.00048459,1,1,12.84,1702.8,0,3000
-8.6554e-14,-8.6554e-14,0.48049,110.13,89.726,7.8823,0.00042551,-0.0054761,0.30552,101.92,0,0,0,200.33,9915.2,-826.94,-0.083261,89.726,110.69,0.99745,-0.071338,6.1157e-05,-6.1116e-05,2.7564e-06,1,-0.071338,-0.99745,-1.6106e-06,-0.0022329,0.0020584,0.00066247,0.00061698,4.5654e-08,-6.2247e-07,0.0025524,0.00048799,-4.8068e-06,-3.1078e-09,-0.0022549,0.00066247,0.0020804,0.99745,-0.071338,0.00010697,-0.00010673,7.2328e-06,1,-0.071338,-0.99745,-3.9926e-07,-0.00039407,0.00052669,0.00035537,7.1463e-09,-9.1971e-08,0.00013238,-0.0018388,0.0015317,0.00030709,3.8508e-08,-5.305e-07,0.00048459,1,1,12.9,1702.9,0,3000
-8.8177e-14,-8.8177e-14,0.48049,110.13,89.726,7.8823,0.00042551,-0.0054761,0.30552,101.92,0,0,0,200.33,9915.2,-826.94,-0.083261,89.726,110.69,0.99745,-0.071338,6.1157e-05,-6.1116e-05,2.7564e-06,1,-0.071338,-0.99745,-1.6106e-06,-0.0022329,0.0020584,0.00066247,0.00061698,4.5654e-08,-6.2247e-07,0.0025524,0.00048799,-4.8068e-06,-3.1078e-09,-0.0022549,0.00066247,0.0020804,0.99745,-0.071338,0.00010697,-0.00010673,7.2328e-06,1,-0.071338,-0.99745,-3.9926e-07,-0.00039407,0.00052669,0.00035537,7.1463e-09,-9.1971e-08,0.00013238,-0.0018388,0.0015317,0.00030709,3.8508e-08,-5.305e-07,0.00048459,1,1,12.96,1703,0,3000
-8.7733e-14,-8.7733e-14,0.55124,111.12,87.928,7.9482,0.00055877,-0.0072711,0.28353,101.92,0,0,0,199.59,9816.6,-169.11,-0.017221,87.928,111.68,0.99745,-0.071338,8.2921e-05,-8.2825e-05,4.2929e-06,1,-0.071338,-0.99745,-1.6266e-06,-0.002232,0.0020558,0.00066238,0.00061649,5.1884e-08,-7.0953e-07,0.0025506,0.00048619,-4.8004e-06,-3.1024e-09,-0.0022541,0.00066238,0.0020779,0.99745,-0.071338,0.00012197,-0.00012168,8.3008e-06,1,-0.071338,-0.99745,-4.0109e-07,-0.000392,0.00053645,0.00034174,9.3845e-09,-1.2212e-07,0.00013349,-0.00184,0.0015194,0.00032064,4.2499e-08,-5.8741e-07,0.000483,1,1,13.02,1703,0,3000
-8.3155e-14,-8.3155e-14,0.55124,111.12,87.928,7.9482,0.00055877,-0.0072711,0.28353,101.92,0,0,0,199.59,9816.6,-169.11,-0.017221,87.928,111.68,0.99745,-0.071338,8.2921e-05,-8.2825e-05,4.2929e-06,1,-0.071338,-0.99745,-1.6266e-06,-0.002232,0.0020558,0.00066238,0.00061649,5.1884e-08,-7.0953e-07,0.0025506,0.00048619,-4.8004e-06,-3.1024e-09,-0.0022541,0.00066238,0.0020779,0.99745,-0.071338,0.00012197,-0.00012168,8.3008e-06,1,-0.071338,-0.99745,-4.0109e-07,-0.000392,0.00053645,0.00034174,9.3845e-09,-1.2212e-07,0.00013349,-0.00184,0.0015194,0.00032064,4.2499e-08,-5.8741e-07,0.000483,1,1,13.08,1703.1,0,3000
-7.8567e-14,-7.8567e-14,0.55124,111.12,87.928,7.9482,0.00055877,-0.0072711,0.28353,101.92,0,0,0,199.59,9816.6,-169.11,-0.017221,87.928,111.68,0.99745,-0.071338,8.2921e-05,-8.2825e-05,4.2929e-06,1,-0.071338,-0.99745,-1.6266e-06,-0.002232,0.0020558,0.00066238,0.00061649,5.1884e-08,-7.0953e-07,0.0025506,0.00048619,-4.8004e-06,-3.1024e-09,-0.0022541,0.00066238,0.0020779,0.99745,-0.071338,0.00012197,-0.00012168,8.3008e-06,1,-0.071338,-0.99745,-4.0109e-07,-0.000392,0.00053645,0.00034174,9.3845e-09,-1.2212e-07,0.00013349,-0.00184,0.0015194,0.00032064,4.2499e-08,-5.8741e-07,0.000483,1,1,13.14,1703.1,0,3000
-7.3989e-14,-7.3989e-14,0.55124,111.12,87.928,7.9482,0.00055877,-0.0072711,0.28353,101.92,0,0,0,199.59,9816.6,-169.11,-0.017221,87.928,111.68,0.99745,-0.071338,8.2921e-05,-8.2825e-05,4.2929e-06,1,-0.071338,-0.99745,-1.6266e-06,-0.002232,0.0020558,0.00066238,0.00061649,5.1884e-08,-7.0953e-07,0.0025506,0.00048619,-4.8004e-06,-3.1024e-09,-0.0022541,0.00066238,0.0020779,0.99745,-0.071338,0.00012197,-0.00012168,8.3008e-06,1,-0.071338,-0.99745,-4.0109e-07,-0.000392,0.00053645,0.00034174,9.3845e-09,-1.2212e-07,0.00013349,-0.00184,0.0015194,0.00032064,4.2499e-08,-5.8741e-07,0.000483,1,1,13.2,1703.2,0,3000
-6.9402e-14,-6.9402e-14,0.55124,111.12,87.928,7.9482,0.00055877,-0.0072711,0.28353,101.92,0,0,0,199.59,9816.6,-169.11,-0.017221,87.928,111.68,0.99745,-0.071338,8.2921e-05,-8.2825e-05,4.2929e-06,1,-0.071338,-0.99745,-1.6266e-06,-0.002232,0.0020558,0.00066238,0.00061649,5.1884e-08,-7.0953e-07,0.0025506,0.00048619,-4.8004e-06,-3.1024e-09,-0.0022541,0.00066238,0.0020779,0.99745,-0.071338,0.00012197,-0.00012168,8.3008e-06,1,-0.071338,-0.99745,-4.0109e-07,-0.000392,0.00053645,0.00034174,9.3845e-09,-1.2212e-07,0.00013349,-0.00184,0.0015194,0.00032064,4.2499e-08,-5.8741e-07,0.000483,1,1,13.26,1703.3,0,3000
-6.4823e-14,-6.4823e-14,0.55124,111.12,87.928,7.9482,0.00055877,-0.0072711,0.28353,101.92,0,0,0,199.59,9816.6,-169.11,-0.017221,87.928,111.68,0.99745,-0.071338,8.2921e-05,-8.2825e-05,4.2929e-06,1,-0.071338,-0.99745,-1.6266e-06,-0.002232,0.0020558,0.00066238,0.00061649,5.1884e-08,-7.0953e-07,0.0025506,0.00048619,-4.8004e-06,-3.1024e-09,-0.0022541,0.00066238,0.0020779,0.99745,-0.071338,0.00012197,-0.00012168,8.3008e-06,1,-0.071338,-0.99745,-4.0109e-07,-0.000392,0.00053645,0.00034174,9.3845e-09,-1.2212e-07,0.00013349,-0.00184,0.0015194,0.00032064,4.2499e-08,-5.8741e-07,0.000483,1,1,13.32,1703.3,0,3000
-6.0236e-14,-6.0236e-14,0.55124,111.12,87.928,7.9482,0.00055877,-0.0072711,0.28353,101.92,0,0,0,199.59,9816.6,-169.11,-0.017221,87.928,111.68,0.99745,-0.071338,8.2921e-05,-8.2825e-05,4.2929e-06,1,-0.071338,-0.99745,-1.6266e-06,-0.002232,0.0020558,0.00066238,0.00061649,5.1884e-08,-7.0953e-07,0.0025506,0.00048619,-4.8004e-06,-3.1024e-09,-0.0022541,0.00066238,0.0020779,0.99745,-0.071338,0.00012197,-0.00012168,8.3008e-06,1,-0.071338,-0.99745,-4.0109e-07,-0.000392,0.00053645,0.00034174,9.3845e-09,-1.2212e-07,0.00013349,-0.00184,0.0015194,0.00032064,4.2499e-08,-5.8741e-07,0.000483,1,1,13.38,1703.4,0,3000
-5.5658e-14,-5.5658e-14,0.55124,111.12,87.928,7.9482,0.00055877,-0.0072711,0.28353,101.92,0,0,0,199.59,9816.6,-169.11,-0.017221,87.928,111.68,0.99745,-0.071338,8.2921e-05,-8.2825e-05,4.2929e-06,1,-0.071338,-0.99745,-1.6266e-06,-0.002232,0.0020558,0.00066238,0.00061649,5.1884e-08,-7.0953e-07,0.0025506,0.00048619,-4.8004e-06,-3.1024e-09,-0.0022541,0.00066238,0.0020779,0.99745,-0.071338,0.00012197,-0.00012168,8.3008e-06,1,-0.071338,-0.99745,-4.0109e-07,-0.000392,0.00053645,0.00034174,9.3845e-09,-1.2212e-07,0.00013349,-0.00184,0.0015194,0.00032064,4.2499e-08,-5.8741e-07,0.000483,1,1,13.44,1703.4,0,3000
-5.107e-14,-5.107e-14,0.55124,111.12,87.928,7.9482,0.00055877,-0.0072711,0.28353,101.92,0,0,0,199.59,9816.6,-169.11,-0.017221,87.928,111.68,0.99745,-0.071338,8.2921e-05,-8.2825e-05,4.2929e-06,1,-0.071338,-0.99745,-1.6266e-06,-0.002232,0.0020558,0.00066238,0.00061649,5.1884e-08,-7.0953e-07,0.0025506,0.00048619,-4.8004e-06,-3.1024e-09,-0.0022541,0.00066238,0.0020779,0.99745,-0.071338,0.00012197,-0.00012168,8.3008e-06,1,-0.071338,-0.99745,-4.0109e-07,-0.000392,0.00053645,0.00034174,9.3845e-09,-1.2212e-07,0.00013349,-0.00184,0.0015194,0.00032064,4.2499e-08,-5.8741e-07,0.000483,1,1,13.5,1703.5,0,3000
-4.6483e-14,-4.6483e-14,0.55124,111.12,87.928,7.9482,0.00055877,-0.0072711,0.28353,101.92,0,0,0,199.59,9816.6,-169.11,-0.017221,87.928,111.68,0.99745,-0.071338,8.2921e-05,-8.2825e-05,4.2929e-06,1,-0.071338,-0.99745,-1.6266e-06,-0.002232,0.0020558,0.00066238,0.00061649,5.1884e-08,-7.0953e-07,0.0025506,0.00048619,-4.8004e-06,-3.1024e-09,-0.0022541,0.00066238,0.0020779,0.99745,-0.071338,0.00012197,-0.00012168,8.3008e-06,1,-0.071338,-0.99745,-4.0109e-07,-0.000392,0.00053645,0.00034174,9.3845e-09,-1.2212e-07,0.00013349,-0.00184,0.0015194,0.00032064,4.2499e-08,-5.8741e-07,0.000483,1,1,13.56,1703.6,0,3000
-4.1905e-14,-4.1905e-14,0.55124,111.12,87.928,7.9482,0.00055877,-0.0072711,0.28353,101.92,0,0,0,199.59,9816.6,-169.11,-0.017221,87.928,111.68,0.99745,-0.071338,8.2921e-05,-8.2825e-05,4.2929e-06,1,-0.071338,-0.99745,-1.6266e-06,-0.002232,0.0020558,0.00066238,0.00061649,5.1884e-08,-7.0953e-07,0.0025506,0.00048619,-4.8004e-06,-3.1024e-09,-0.0022541,0.00066238,0.0020779,0.99745,-0.071338,0.00012197,-0.00012168,8.3008e-06,1,-0.071338,-0.99745,-4.0109e-07,-0.000392,0.00053645,0.00034174,9.3845e-09,-1.2212e-07,0.00013349,-0.00184,0.0015194,0.00032064,4.2499e-08,-5.8741e-07,0.000483,1,1,13.62,1703.6,0,3000
-3.7317e-14,-3.7317e-14,0.55124,111.12,87.928,7.9482,0.00055877,-0.0072711,0.28353,101.92,0,0,0,199.59,9816.6,-169.11,-0.017221,87.928,111.68,0.99745,-0.071338,8.2921e-05,-8.2825e-05,4.2929e-06,1,-0.071338,-0.99745,-1.6266e-06,-0.002232,0.0020558,0.00066238,0.00061649,5.1884e-08,-7.0953e-07,0.0025506,0.00048619,-4.8004e-06,-3.1024e-09,-0.0022541,0.00066238,0.0020779,0.99745,-0.071338,0.00012197,-0.00012168,8.3008e-06,1,-0.071338,-0.99745,-4.0109e-07,-0.000392,0.00053645,0.00034174,9.3845e-09,-1.2212e-07,0.00013349,-0.00184,0.0015194,0.00032064,4.2499e-08,-5.8741e-07,0.000483,1,1,13.68,1703.7,0,3000
-3.2739e-14,-3.2739e-14,0.55124,111.12,87.928,7.9482,0.00055877,-0.0072711,0.28353,101.92,0,0,0,199.59,9816.6,-169.11,-0.017221,87.928,111.68,0.99745,-0.071338,8.2921e-05,-8.2825e-05,4.2929e-06,1,-0.071338,-0.99745,-1.6266e-06,-0.002232,0.0020558,0.00066238,0.00061649,5.1884e-08,-7.0953e-07,0.0025506,0.00048619,-4.8004e-06,-3.1024e-09,-0.0022541,0.00066238,0.0020779,0.99745,-0.071338,0.00012197,-0.00012168,8.3008e-06,1,-0.071338,-0.99745,-4.0109e-07,-0.000392,0.00053645,0.00034174,9.3845e-09,-1.2212e-07,0.00013349,-0.00184,0.0015194,0.00032064,4.2499e-08,-5.8741e-07,0.000483,1,1,13.74,1703.7,0,3000
-2.8152e-14,-2.8152e-14,0.55124,111.12,87.928,7.9482,0.00055877,-0.0072711,0.28353,101.92,0,0,0,199.59,9816.6,-169.11,-0.017221,87.928,111.68,0.99745,-0.071338,8.2921e-05,-8.2825e-05,4.2929e-06,1,-0.071338,-0.99745,-1.6266e-06,-0.002232,0.0020558,0.00066238,0.00061649,5.1884e-08,-7.0953e-07,0.0025506,0.00048619,-4.8004e-06,-3.1024e-09,-0.0022541,0.00066238,0.0020779,0.99745,-0.071338,0.00012197,-0.00012168,8.3008e-06,1,-0.071338,-0.99745,-4.0109e-07,-0.000392,0.00053645,0.00034174,9.3845e-09,-1.2212e-07,0.00013349,-0.00184,0.0015194,0.00032064,4.2499e-08,-5.8741e-07,0.000483,1,1,13.8,1703.8,0,3000
-2.3573e-14,-2.3573e-14,0.55124,111.12,87.928,7.9482,0.00055877,-0.0072711,0.28353,101.92,0,0,0,199.59,9816.6,-169.11,-0.017221,87.928,111.68,0.99745,-0.071338,8.2921e-05,-8.2825e-05,4.2929e-06,1,-0.071338,-0.99745,-1.6266e-06,-0.002232,0.0020558,0.00066238,0.00061649,5.1884e-08,-7.0953e-07,0.0025506,0.00048619,-4.8004e-06,-3.1024e-09,-0.0022541,0.00066238,0.0020779,0.99745,-0.071338,0.00012197,-0.00012168,8.3008e-06,1,-0.071338,-0.99745,-4.0109e-07,-0.000392,0.00053645,0.00034174,9.3845e-09,-1.2212e-07,0.00013349,-0.00184,0.0015194,0.00032064,4.2499e-08,-5.8741e-07,0.000483,1,1,13.86,1703.9,0,3000
-1.8986e-14,-1.8986e-14,0.55124,111.12,87.928,7.9482,0.00055877,-0.0072711,0.28353,101.92,0,0,0,199.59,9816.6,-169.11,-0.017221,87.928,111.68,0.99745,-0.071338,8.2921e-05,-8.2825e-05,4.2929e-06,1,-0.071338,-0.99745,-1.6266e-06,-0.002232,0.0020558,0.00066238,0.00061649,5.1884e-08,-7.0953e-07,0.0025506,0.00048619,-4.8004e-06,-3.1024e-09,-0.0022541,0.00066238,0.0020779,0.99745,-0.071338,0.00012197,-0.00012168,8.3008e-06,1,-0.071338,-0.99745,-4.0109e-07,-0.000392,0.00053645,0.00034174,9.3845e-09,-1.2212e-07,0.00013349,-0.00184,0.0015194,0.00032064,4.2499e-08,-5.8741e-07,0.000483,1,1,13.92,1703.9,0,3000
-1.4408e-14,-1.4408e-14,0.55124,111.12,87.928,7.9482,0.00055877,-0.0072711,0.28353,101.92,0,0,0,199.59,9816.6,-169.11,-0.017221,87.928,111.68,0.99745,-0.071338,8.2921e-05,-8.2825e-05,4.2929e-06,1,-0.071338,-0.99745,-1.6266e-06,-0.002232,0.0020558,0.00066238,0.00061649,5.1884e-08,-7.0953e-07,0.0025506,0.00048619,-4.8004e-06,-3.1024e-09,-0.0022541,0.00066238,0.0020779,0.99745,-0.071338,0.00012197,-0.00012168,8.3008e-06,1,-0.071338,-0.99745,-4.0109e-07,-0.000392,0.00053645,0.00034174,9.3845e-09,-1.2212e-07,0.00013349,-0.00184,0.0015194,0.00032064,4.2499e-08,-5.8741e-07,0.000483,1,1,13.98,1704,0,3000
-1.5688e-14,-1.5688e-14,0.62005,111.72,86.805,7.987,0.000656,-0.0085566,0.26862,101.92,0,0,0,199.15,9757.4,475.9,0.048822,86.805,112.29,0.99745,-0.071338,9.8916e-05,-9.8787e-05,5.338e-06,1,-0.071338,-0.99745,-1.7229e-06,-0.0022305,0.0020533,0.0006623,0.00061591,5.359e-08,-7.3182e-07,0.0025483,0.0004851,-4.7921e-06,-3.0961e-09,-0.0022525,0.0006623,0.0020753,0.99745,-0.071338,0.00012587,-0.00012558,8.5394e-06,1,-0.071338,-0.99745,-4.4104e-07,-0.00039054,0.00054244,0.0003332,1.1017e-08,-1.4371e-07,0.00013414,-0.00184,0.0015109,0.0003291,4.2572e-08,-5.8811e-07,0.00048177,1,1,14.04,1704,0,3000
-1.9893e-14,-1.9893e-14,0.62005,111.72,86.805,7.987,0.000656,-0.0085566,0.26862,101.92,0,0,0,199.15,9757.4,475.9,0.048822,86.805,112.29,0.99745,-0.071338,9.8916e-05,-9.8787e-05,5.338e-06,1,-0.071338,-0.99745,-1.7229e-06,-0.0022305,0.0020533,0.0006623,0.00061591,5.359e-08,-7.3182e-07,0.0025483,0.0004851,-4.7921e-06,-3.0961e-09,-0.0022525,0.0006623,0.0020753,0.99745,-0.071338,0.00012587,-0.00012558,8.5394e-06,1,-0.071338,-0.99745,-4.4104e-07,-0.00039054,0.00054244,0.0003332,1.1017e-08,-1.4371e-07,0.00013414,-0.00184,0.0015109,0.0003291,4.2572e-08,-5.8811e-07,0.00048177,1,1,14.1,1704.1,0,3000
-2.4108e-14,-2.4108e-14,0.62005,111.72,86.805,7.987,0.000656,-0.0085566,0.26862,101.92,0,0,0,199.15,9757.4,475.9,0.048822,86.805,112.29,0.99745,-0.071338,9.8916e-05,-9.8787e-05,5.338e-06,1,-0.071338,-0.99745,-1.7229e-06,-0.0022305,0.0020533,0.0006623,0.00061591,5.359e-08,-7.3182e-07,0.0025483,0.0004851,-4.7921e-06,-3.0961e-09,-0.0022525,0.0006623,0.0020753,0.99745,-0.071338,0.00012587,-0.00012558,8.5394e-06,1,-0.071338,-0.99745,-4.4104e-07,-0.00039054,0.00054244,0.0003332,1.1017e-08,-1.4371e-07,0.00013414,-0.00184,0.0015109,0.0003291,4.2572e-08,-5.8811e-07,0.00048177,1,1,14.16,1704.2,0,3000
-2.8313e-14,-2.8313e-14,0.62005,111.72,86.805,7.987,0.000656,-0.0085566,0.26862,101.92,0,0,0,199.15,9757.4,475.9,0.048822,86.805,112.29,0.99745,-0.071338,9.8916e-05,-9.8787e-05,5.338e-06,1,-0.071338,-0.99745,-1.7229e-06,-0.0022305,0.0020533,0.0006623,0.00061591,5.359e-08,-7.3182e-07,0.0025483,0.0004851,-4.7921e-06,-3.0961e-09,-0.0022525,0.0006623,0.0020753,0.99745,-0.071338,0.00012587,-0.00012558,8.5394e-06,1,-0.071338,-0.99745,-4.4104e-07,-0.00039054,0.00054244,0.0003332,1.1017e-08,-1.4371e-07,0.00013414,-0.00184,0.0015109,0.0003291,4.2572e-08,-5.8811e-07,0.00048177,1,1,14.22,1704.2,0,3000
-3.2527e-14,-3.2527e-14,0.62005,111.72,86.805,7.987,0.000656,-0.0085566,0.26862,101.92,0,0,0,199.15,9757.4,475.9,0.048822,86.805,112.29,0.99745,-0.071338,9.8916e-05,-9.8787e-05,5.338e-06,1,-0.071338,-0.99745,-1.7229e-06,-0.0022305,0.0020533,0.0006623,0.00061591,5.359e-08,-7.3182e-07,0.0025483,0.0004851,-4.7921e-06,-3.0961e-09,-0.0022525,0.0006623,0.0020753,0.99745,-0.071338,0.00012587,-0.00012558,8.5394e-06,1,-0.071338,-0.99745,-4.4104e-07,-0.00039054,0.00054244,0.0003332,1.1017e-08,-1.4371e-07,0.00013414,-0.00184,0.0015109,0.0003291,4.2572e-08,-5.8811e-07,0.00048177,1,1,14.28,1704.3,0,3000
-3.6733e-14,-3.6733e-14,0.62005,111.72,86.805,7.987,0.000656,-0.0085566,0.26862,101.92,0,0,0,199.15,9757.4,475.9,0.048822,86.805,112.29,0.99745,-0.071338,9.8916e-05,-9.8787e-05,5.338e-06,1,-0.071338,-0.99745,-1.7229e-06,-0.0022305,0.0020533,0.0006623,0.00061591,5.359e-08,-7.3182e-07,0.0025483,0.0004851,-4.7921e-06,-3.0961e-09,-0.0022525,0.0006623,0.0020753,0.99745,-0.071338,0.00012587,-0.00012558,8.5394e-06,1,-0.071338,-0.99745,-4.4104e-07,-0.00039054,0.00054244,0.0003332,1.1017e-08,-1.4371e-07,0.00013414,-0.00184,0.0015109,0.0003291,4.2572e-08,-5.8811e-07,0.00048177,1,1,14.34,1704.3,0,3000
-4.0947e-14,-4.0947e-14,0.62005,111.72,86.805,7.987,0.000656,-0.0085566,0.26862,101.92,0,0,0,199.15,9757.4,475.9,0.048822,86.805,112.29,0.99745,-0.071338,9.8916e-05,-9.8787e-05,5.338e-06,1,-0.071338,-0.99745,-1.7229e-06,-0.0022305,0.0020533,0.0006623,0.00061591,5.359e-08,-7.3182e-07,0.0025483,0.0004851,-4.7921e-06,-3.0961e-09,-0.0022525,0.0006623,0.0020753,0.99745,-0.071338,0.00012587,-0.00012558,8.5394e-06,1,-0.071338,-0.99745,-4.4104e-07,-0.00039054,0.00054244,0.0003332,1.1017e-08,-1.4371e-07,0.00013414,-0.00184,0.0015109,0.0003291,4.2572e-08,-5.8811e-07,0.00048177,1,1,14.4,1704.4,0,3000
-4.5152e-14,-4.5152e-14,0.62005,111.72,86.805,7.987,0.000656,-0.0085566,0.26862,101.92,0,0,0,199.15,9757.4,475.9,0.048822,86.805,112.29,0.99745,-0.071338,9.8916e-05,-9.8787e-05,5.338e-06,1,-0.071338,-0.99745,-1.7229e-06,-0.0022305,0.0020533,0.0006623,0.00061591,5.359e-08,-7.3182e-07,0.0025483,0.0004851,-4.7921e-06,-3.0961e-09,-0.0022525,0.0006623,0.0020753,0.99745,-0.071338,0.00012587,-0.00012558,8.5394e-06,1,-0.071338,-0.99745,-4.4104e-07,-0.00039054,0.00054244,0.0003332,1.1017e-08,-1.4371e-07,0.00013414,-0.00184,0.0015109,0.0003291,4.2572e-08,-5.8811e-07,0.00048177,1,1,14.46,1704.5,0,3000
-4.9366e-14,-4.9366e-14,0.62005,111.72,86.805,7.987,0.000656,-0.0085566,0.26862,101.92,0,0,0,199.15,9757.4,475.9,0.048822,86.805,112.29,0.99745,-0.071338,9.8916e-05,-9.8787e-05,5.338e-06,1,-0.071338,-0.99745,-1.7229e-06,-0.0022305,0.0020533,0.0006623,0.00061591,5.359e-08,-7.3182e-07,0.0025483,0.0004851,-4.7921e-06,-3.0961e-09,-0.0022525,0.0006623,0.0020753,0.99745,-0.071338,0.00012587,-0.00012558,8.5394e-06,1,-0.071338,-0.99745,-4.4104e-07,-0.00039054,0.00054244,0.0003332,1.1017e-08,-1.4371e-07,0.00013414,-0.00184,0.0015109,0.0003291,4.2572e-08,-5.8811e-07,0.00048177,1,1,14.52,1704.5,0,3000
-5.3572e-14,-5.3572e-14,0.62005,111.72,86.805,7.987,0.000656,-0.0085566,0.26862,101.92,0,0,0,199.15,9757.4,475.9,0.048822,86.805,112.29,0.99745,-0.071338,9.8916e-05,-9.8787e-05,5.338e-06,1,-0.071338,-0.99745,-1.7229e-06,-0.0022305,0.0020533,0.0006623,0.00061591,5.359e-08,-7.3182e-07,0.0025483,0.0004851,-4.7921e-06,-3.0961e-09,-0.0022525,0.0006623,0.0020753,0.99745,-0.071338,0.00012587,-0.00012558,8.5394e-06,1,-0.071338,-0.99745,-4.4104e-07,-0.00039054,0.00054244,0.0003332,1.1017e-08,-1.4371e-07,0.00013414,-0.00184,0.0015109,0.0003291,4.2572e-08,-5.8811e-07,0.00048177,1,1,14.58,1704.6,0,3000
-5.7786e-14,-5.7786e-14,0.62005,111.72,86.805,7.987,0.000656,-0.0085566,0.26862,101.92,0,0,0,199.15,9757.4,475.9,0.048822,86.805,112.29,0.99745,-0.071338,9.8916e-05,-9.8787e-05,5.338e-06,1,-0.071338,-0.99745,-1.7229e-06,-0.0022305,0.0020533,0.0006623,0.00061591,5.359e-08,-7.3182e-07,0.0025483,0.0004851,-4.7921e-06,-3.0961e-09,-0.0022525,0.0006623,0.0020753,0.99745,-0.071338,0.00012587,-0.00012558,8.5394e-06,1,-0.071338,-0.99745,-4.4104e-07,-0.00039054,0.00054244,0.0003332,1.1017e-08,-1.4371e-07,0.00013414,-0.00184,0.0015109,0.0003291,4.2572e-08,-5.8811e-07,0.00048177,1,1,14.64,1704.6,0,3000
-6.1991e-14,-6.1991e-14,0.62005,111.72,86.805,7.987,0.000656,-0.0085566,0.26862,101.92,0,0,0,199.15,9757.4,475.9,0.048822,86.805,112.29,0.99745,-0.071338,9.8916e-05,-9.8787e-05,5.338e-06,1,-0.071338,-0.99745,-1.7229e-06,-0.0022305,0.0020533,0.0006623,0.00061591,5.359e-08,-7.3182e-07,0.0025483,0.0004851,-4.7921e-06,-3.0961e-09,-0.0022525,0.0006623,0.0020753,0.99745,-0.071338,0.00012587,-0.00012558,8.5394e-06,1,-0.071338,-0.99745,-4.4104e-07,-0.00039054,0.00054244,0.0003332,1.1017e-08,-1.4371e-07,0.00013414,-0.00184,0.0015109,0.0003291,4.2572e-08,-5.8811e-07,0.00048177,1,1,14.7,1704.7,0,3000
-6.6206e-14,-6.6206e-14,0.62005,111.72,86.805,7.987,0.000656,-0.0085566,0.26862,101.92,0,0,0,199.15,9757.4,475.9,0.048822,86.805,112.29,0.99745,-0.071338,9.8916e-05,-9.8787e-05,5.338e-06,1,-0.071338,-0.99745,-1.7229e-06,-0.0022305,0.0020533,0.0006623,0.00061591,5.359e-08,-7.3182e-07,0.0025483,0.0004851,-4.7921e-06,-3.0961e-09,-0.0022525,0.0006623,0.0020753,0.99745,-0.071338,0.00012587,-0.00012558,8.5394e-06,1,-0.071338,-0.99745,-4.4104e-07,-0.00039054,0.00054244,0.0003332,1.1017e-08,-1.4371e-07,0.00013414,-0.00184,0.0015109,0.0003291,4.2572e-08,-5.8811e-07,0.00048177,1,1,14.76,1704.8,0,3000
-7.0411e-14,-7.0411e-14,0.62005,111.72,86.805,7.987,0.000656,-0.0085566,0.26862,101.92,0,0,0,199.15,9757.4,475.9,0.048822,86.805,112.29,0.99745,-0.071338,9.8916e-05,-9.8787e-05,5.338e-06,1,-0.071338,-0.99745,-1.7229e-06,-0.0022305,0.0020533,0.0006623,0.00061591,5.359e-08,-7.3182e-07,0.0025483,0.0004851,-4.7921e-06,-3.0961e-09,-0.0022525,0.0006623,0.0020753,0.99745,-0.071338,0.00012587,-0.00012558,8.5394e-06,1,-0.071338,-0.99745,-4.4104e-07,-0.00039054,0.00054244,0.0003332,1.1017e-08,-1.4371e-07,0.00013414,-0.00184,0.0015109,0.0003291,4.2572e-08,-5.8811e-07,0.00048177,1,1,14.82,1704.8,0,3000
-7.4625e-14,-7.4625e-14,0.62005,111.72,86.805,7.987,0.000656,-0.0085566,0.26862,101.92,0,0,0,199.15,9757.4,475.9,0.048822,86.805,112.29,0.99745,-0.071338,9.8916e-05,-9.8787e-05,5.338e-06,1,-0.071338,-0.99745,-1.7229e-06,-0.0022305,0.0020533,0.0006623,0.00061591,5.359e-08,-7.3182e-07,0.0025483,0.0004851,-4.7921e-06,-3.0961e-09,-0.0022525,0.0006623,0.0020753,0.99745,-0.071338,0.00012587,-0.00012558,8.5394e-06,1,-0.071338,-0.99745,-4.4104e-07,-0.00039054,0.00054244,0.0003332,1.1017e-08,-1.4371e-07,0.00013414,-0.00184,0.0015109,0.0003291,4.2572e-08,-5.8811e-07,0.00048177,1,1,14.88,1704.9,0,3000
-7.8831e-14,-7.8831e-14,0.62005,111.72,86.805,7.987,0.000656,-0.0085566,0.26862,101.92,0,0,0,199.15,9757.4,475.9,0.048822,86.805,112.29,0.99745,-0.071338,9.8916e-05,-9.8787e-05,5.338e-06,1,-0.071338,-0.99745,-1.7229e-06,-0.0022305,0.0020533,0.0006623,0.00061591,5.359e-08,-7.3182e-07,0.0025483,0.0004851,-4.7921e-06,-3.0961e-09,-0.0022525,0.0006623,0.0020753,0.99745,-0.071338,0.00012587,-0.00012558,8.5394e-06,1,-0.071338,-0.99745,-4.4104e-07,-0.00039054,0.00054244,0.0003332,1.1017e-08,-1.4371e-07,0.00013414,-0.00184,0.0015109,0.0003291,4.2572e-08,-5.8811e-07,0.00048177,1,1,14.94,1704.9,0,3000
-8.3045e-14,-8.3045e-14,0.62005,111.72,86.805,7.987,0.000656,-0.0085566,0.26862,101.92,0,0,0,199.15,9757.4,475.9,0.048822,86.805,112.29,0.99745,-0.071338,9.8916e-05,-9.8787e-05,5.338e-06,1,-0.071338,-0.99745,-1.7229e-06,-0.0022305,0.0020533,0.0006623,0.00061591,5.359e-08,-7.3182e-07,0.0025483,0.0004851,-4.7921e-06,-3.0961e-09,-0.0022525,0.0006623,0.0020753,0.99745,-0.071338,0.00012587,-0.00012558,8.5394e-06,1,-0.071338,-0.99745,-4.4104e-07,-0.00039054,0.00054244,0.0003332,1.1017e-08,-1.4371e-07,0.00013414,-0.00184,0.0015109,0.0003291,4.2572e-08,-5.8811e-07,0.00048177,1,1,15,1705,0,3000
-7.507e-14,-7.507e-14,0.68716,112,86.392,8.0019,0.00071593,-0.0093546,0.25717,101.92,0,0,0,199.08,9748,1117.1,0.11486,86.392,112.57,0.99745,-0.071338,0.00010874,-0.00010859,5.9754e-06,1,-0.071338,-0.99745,-1.7865e-06,-0.0022281,0.0020508,0.00066222,0.00061519,5.1698e-08,-7.0409e-07,0.0025455,0.00048493,-4.7813e-06,-3.0885e-09,-0.0022501,0.00066222,0.0020728,0.99745,-0.071338,0.00012121,-0.00012093,8.1739e-06,1,-0.071338,-0.99745,-4.7409e-07,-0.00038983,0.00054489,0.00032987,1.2024e-08,-1.5711e-07,0.00013439,-0.0018382,0.0015059,0.00033234,3.9674e-08,-5.4698e-07,0.0004808,1,1,15.06,1705.1,0,3000
-6.7111e-14,-6.7111e-14,0.68716,112,86.392,8.0019,0.00071593,-0.0093546,0.25717,101.92,0,0,0,199.08,9748,1117.1,0.11486,86.392,112.57,0.99745,-0.071338,0.00010874,-0.00010859,5.9754e-06,1,-0.071338,-0.99745,-1.7865e-06,-0.0022281,0.0020508,0.00066222,0.00061519,5.1698e-08,-7.0409e-07,0.0025455,0.00048493,-4.7813e-06,-3.0885e-09,-0.0022501,0.00066222,0.0020728,0.99745,-0.071338,0.00012121,-0.00012093,8.1739e-06,1,-0.071338,-0.99745,-4.7409e-07,-0.00038983,0.00054489,0.00032987,1.2024e-08,-1.5711e-07,0.00013439,-0.0018382,0.0015059,0.00033234,3.9674e-08,-5.4698e-07,0.0004808,1,1,15.12,1705.1,0,3000
-5.9137e-14,-5.9137e-14,0.68716,112,86.392,8.0019,0.00071593,-0.0093546,0.25717,101.92,0,0,0,199.08,9748,1117.1,0.11486,86.392,112.57,0.99745,-0.071338,0.00010874,-0.00010859,5.9754e-06,1,-0.071338,-0.99745,-1.7865e-06,-0.0022281,0.0020508,0.00066222,0.00061519,5.1698e-08,-7.0409e-07,0.0025455,0.00048493,-4.7813e-06,-3.0885e-09,-0.0022501,0.00066222,0.0020728,0.99745,-0.071338,0.00012121,-0.00012093,8.1739e-06,1,-0.071338,-0.99745,-4.7409e-07,-0.00038983,0.00054489,0.00032987,1.2024e-08,-1.5711e-07,0.00013439,-0.0018382,0.0015059,0.00033234,3.9674e-08,-5.4698e-07,0.0004808,1,1,15.18,1705.2,0,3000
-5.1178e-14,-5.1178e-14,0.68716,112,86.392,8.0019,0.00071593,-0.0093546,0.25717,101.92,0,0,0,199.08,9748,1117.1,0.11486,86.392,112.57,0.99745,-0.071338,0.00010874,-0.00010859,5.9754e-06,1,-0.071338,-0.99745,-1.7865e-06,-0.0022281,0.0020508,0.00066222,0.00061519,5.1698e-08,-7.0409e-07,0.0025455,0.00048493,-4.7813e-06,-3.0885e-09,-0.0022501,0.00066222,0.0020728,0.99745,-0.071338,0.00012121,-0.00012093,8.1739e-06,1,-0.071338,-0.99745,-4.7409e-07,-0.00038983,0.00054489,0.00032987,1.2024e-08,-1.5711e-07,0.00013439,-0.0018382,0.0015059,0.00033234,3.9674e-08,-5.4698e-07,0.0004808,1,1,15.24,1705.2,0,3000
-4.3203e-14,-4.3203e-14,0.68716,112,86.392,8.0019,0.00071593,-0.0093546,0.25717,101.92,0,0,0,199.08,9748,1117.1,0.11486,86.392,112.57,0.99745,-0.071338,0.00010874,-0.00010859,5.9754e-06,1,-0.071338,-0.99745,-1.7865e-06,-0.0022281,0.0020508,0.00066222,0.00061519,5.1698e-08,-7.0409e-07,0.0025455,0.00048493,-4.7813e-06,-3.0885e-09,-0.0022501,0.00066222,0.0020728,0.99745,-0.071338,0.00012121,-0.00012093,8.1739e-06,1,-0.071338,-0.99745,-4.7409e-07,-0.00038983,0.00054489,0.00032987,1.2024e-08,-1.5711e-07,0.00013439,-0.0018382,0.0015059,0.00033234,3.9674e-08,-5.4698e-07,0.0004808,1,1,15.3,1705.3,0,3000
-3.5245e-14,-3.5245e-14,0.68716,112,86.392,8.0019,0.00071593,-0.0093546,0.25717,101.92,0,0,0,199.08,9748,1117.1,0.11486,86.392,112.57,0.99745,-0.071338,0.00010874,-0.00010859,5.9754e-06,1,-0.071338,-0.99745,-1.7865e-06,-0.0022281,0.0020508,0.00066222,0.00061519,5.1698e-08,-7.0409e-07,0.0025455,0.00048493,-4.7813e-06,-3.0885e-09,-0.0022501,0.00066222,0.0020728,0.99745,-0.071338,0.00012121,-0.00012093,8.1739e-06,1,-0.071338,-0.99745,-4.7409e-07,-0.00038983,0.00054489,0.00032987,1.2024e-08,-1.5711e-07,0.00013439,-0.0018382,0.0015059,0.00033234,3.9674e-08,-5.4698e-07,0.0004808,1,1,15.36,1705.4,0,3000
-2.727e-14,-2.727e-14,0.68716,112,86.392,8.0019,0.00071593,-0.0093546,0.25717,101.92,0,0,0,199.08,9748,1117.1,0.11486,86.392,112.57,0.99745,-0.071338,0.00010874,-0.00010859,5.9754e-06,1,-0.071338,-0.99745,-1.7865e-06,-0.0022281,0.0020508,0.00066222,0.00061519,5.1698e-08,-7.0409e-07,0.0025455,0.00048493,-4.7813e-06,-3.0885e-09,-0.0022501,0.00066222,0.0020728,0.99745,-0.071338,0.00012121,-0.00012093,8.1739e-06,1,-0.071338,-0.99745,-4.7409e-07,-0.00038983,0.00054489,0.00032987,1.2024e-08,-1.5711e-07,0.00013439,-0.0018382,0.0015059,0.00033234,3.9674e-08,-5.4698e-07,0.0004808,1,1,15.42,1705.4,0,3000
-1.9312e-14,-1.9312e-14,0.68716,112,86.392,8.0019,0.00071593,-0.0093546,0.25717,101.92,0,0,0,199.08,9748,1117.1,0.11486,86.392,112.57,0.99745,-0.071338,0.00010874,-0.00010859,5.9754e-06,1,-0.071338,-0.99745,-1.7865e-06,-0.0022281,0.0020508,0.00066222,0.00061519,5.1698e-08,-7.0409e-07,0.0025455,0.00048493,-4.7813e-06,-3.0885e-09,-0.0022501,0.00066222,0.0020728,0.99745,-0.071338,0.00012121,-0.00012093,8.1739e-06,1,-0.071338,-0.99745,-4.7409e-07,-0.00038983,0.00054489,0.00032987,1.2024e-08,-1.5711e-07,0.00013439,-0.0018382,0.0015059,0.00033234,3.9674e-08,-5.4698e-07,0.0004808,1,1,15.48,1705.5,0,3000
-1.1337e-14,-1.1337e-14,0.68716,112,86.392,8.0019,0.00071593,-0.0093546,0.25717,101.92,0,0,0,199.08,9748,1117.1,0.11486,86.392,112.57,0.99745,-0.071338,0.00010874,-0.00010859,5.9754e-06,1,-0.071338,-0.99745,-1.7865e-06,-0.0022281,0.0020508,0.00066222,0.00061519,5.1698e-08,-7.0409e-07,0.0025455,0.00048493,-4.7813e-06,-3.0885e-09,-0.0022501,0.00066222,0.0020728,0.99745,-0.071338,0.00012121,-0.00012093,8.1739e-06,1,-0.071338,-0.99745,-4.7409e-07,-0.00038983,0.00054489,0.00032987,1.2024e-08,-1.5711e-07,0.00013439,-0.0018382,0.0015059,0.00033234,3.9674e-08,-5.4698e-07,0.0004808,1,1,15.54,1705.5,0,3000
-3.3783e-15,-3.3783e-15,0.68716,112,86.392,8.0019,0.00071593,-0.0093546,0.25717,101.92,0,0,0,199.08,9748,1117.1,0.11486,86.392,112.57,0.99745,-0.071338,0.00010874,-0.00010859,5.9754e-06,1,-0.071338,-0.99745,-1.7865e-06,-0.0022281,0.0020508,0.00066222,0.00061519,5.1698e-08,-7.0409e-07,0.0025455,0.00048493,-4.7813e-06,-3.0885e-09,-0.0022501,0.00066222,0.0020728,0.99745,-0.071338,0.00012121,-0.00012093,8.1739e-06,1,-0.071338,-0.99745,-4.7409e-07,-0.00038983,0.00054489,0.00032987,1.2024e-08,-1.5711e-07,0.00013439,-0.0018382,0.0015059,0.00033234,3.9674e-08,-5.4698e-07,0.0004808,1,1,15.6,1705.6,0,3000
4.5964e-15,4.5964e-15,0.68716,112,86.392,8.0019,0.00071593,-0.0093546,0.25717,101.92,0,0,0,199.08,9748,1117.1,0.11486,86.392,112.57,0.99745,-0.071338,0.00010874,-0.00010859,5.9754e-06,1,-0.071338,-0.99745,-1.7865e-06,-0.0022281,0.0020508,0.00066222,0.00061519,5.1698e-08,-7.0409e-07,0.0025455,0.00048493,-4.7813e-06,-3.0885e-09,-0.0022501,0.00066222,0.0020728,0.99745,-0.071338,0.00012121,-0.00012093,8.1739e-06,1,-0.071338,-0.99745,-4.7409e-07,-0.00038983,0.00054489,0.00032987,1.2024e-08,-1.5711e-07,0.00013439,-0.0018382,0.0015059,0.00033234,3.9674e-08,-5.4698e-07,0.0004808,1,1,15.66,1705.7,0,3000
1.2555e-14,1.2555e-14,0.68716,112,86.392,8.0019,0.00071593,-0.0093546,0.25717,101.92,0,0,0,199.08,9748,1117.1,0.11486,86.392,112.57,0.99745,-0.071338,0.00010874,-0.00010859,5.9754e-06,1,-0.071338,-0.99745,-1.7865e-06,-0.0022281,0.0020508,0.00066222,0.00061519,5.1698e-08,-7.0409e-07,0.0025455,0.00048493,-4.7813e-06,-3.0885e-09,-0.0022501,0.00066222,0.0020728,0.99745,-0.071338,0.00012121,-0.00012093,8.1739e-06,1,-0.071338,-0.99745,-4.7409e-07,-0.00038983,0.00054489,0.00032987,1.2024e-08,-1.5711e-07,0.00013439,-0.0018382,0.0015059,0.00033234,3.9674e-08,-5.4698e-07,0.0004808,1,1,15.72,1705.7,0,3000
2.053e-14,2.053e-14,0.68716,112,86.392,8.0019,0.00071593,-0.0093546,0.25717,101.92,0,0,0,199.08,9748,1117.1,0.11486,86.392,112.57,0.99745,-0.071338,0.00010874,-0.00010859,5.9754e-06,1,-0.071338,-0.99745,-1.7865e-06,-0.0022281,0.0020508,0.00066222,0.00061519,5.1698e-08,-7.0409e-07,0.0025455,0.00048493,-4.7813e-06,-3.0885e-09,-0.0022501,0.00066222,0.0020728,0.99745,-0.071338,0.00012121,-0.00012093,8.1739e-06,1,-0.071338,-0.99745,-4.7409e-07,-0.00038983,0.00054489,0.00032987,1.2024e-08,-1.5711e-07,0.00013439,-0.0018382,0.0015059,0.00033234,3.9674e-08,-5.4698e-07,0.0004808,1,1,15.78,1705.8,0,3000
2.8488e-14,2.8488e-14,0.68716,112,86.392,8.0019,0.00071593,-0.0093546,0.25717,101.92,0,0,0,199.08,9748,1117.1,0.11486,86.392,112.57,0.99745,-0.071338,0.00010874,-0.00010859,5.9754e-06,1,-0.071338,-0.99745,-1.7865e-06,-0.0022281,0.0020508,0.00066222,0.00061519,5.1698e-08,-7.0409e-07,0.0025455,0.00048493,-4.7813e-06,-3.0885e-09,-0.0022501,0.00066222,0.0020728,0.99745,-0.071338,0.00012121,-0.00012093,8.1739e-06,1,-0.071338,-0.99745,-4.7409e-07,-0.00038983,0.00054489,0.00032987,1.2024e-08,-1.5711e-07,0.00013439,-0.0018382,0.0015059,0.00033234,3.9674e-08,-5.4698e-07,0.0004808,1,1,15.84,1705.8,0,3000
3.6463e-14,3.6463e-14,0.68716,112,86.392,8.0019,0.00071593,-0.0093546,0.25717,101.92,0,0,0,199.08,9748,1117.1,0.11486,86.392,112.57,0.99745,-0.071338,0.00010874,-0.00010859,5.9754e-06,1,-0.071338,-0.99745,-1.7865e-06,-0.0022281,0.0020508,0.00066222,0.00061519,5.1698e-08,-7.0409e-07,0.0025455,0.00048493,-4.7813e-06,-3.0885e-09,-0.0022501,0.00066222,0.0020728,0.99745,-0.071338,0.00012121,-0.00012093,8.1739e-06,1,-0.071338,-0.99745,-4.7409e-07,-0.00038983,0.00054489,0.00032987,1.2024e-08,-1.5711e-07,0.00013439,-0.0018382,0.0015059,0.00033234,3.9674e-08,-5.4698e-07,0.0004808,1,1,15.9,1705.9,0,3000
4.4421e-14,4.4421e-14,0.68716,112,86.392,8.0019,0.00071593,-0.0093546,0.25717,101.92,0,0,0,199.08,9748,1117.1,0.11486,86.392,112.57,0.99745,-0.071338,0.00010874,-0.00010859,5.9754e-06,1,-0.071338,-0.99745,-1.7865e-06,-0.0022281,0.0020508,0.00066222,0.00061519,5.1698e-08,-7.0409e-07,0.0025455,0.00048493,-4.7813e-06,-3.0885e-09,-0.0022501,0.00066222,0.0020728,0.99745,-0.071338,0.00012121,-0.00012093,8.1739e-06,1,-0.071338,-0.99745,-4.7409e-07,-0.00038983,0.00054489,0.00032987,1.2024e-08,-1.5711e-07,0.00013439,-0.0018382,0.0015059,0.00033234,3.9674e-08,-5.4698e-07,0.0004808,1,1,15.96,1706,0,3000
5.3516e-14,5.3516e-14,0.75111,111.96,86.704,7.9942,0.00072725,-0.0095141,0.24671,101.92,0,0,0,199.41,9792.2,1749.9,0.17936,86.704,112.53,0.99745,-0.071338,0.00011028,-0.00011013,6.0642e-06,1,-0.071338,-0.99745,-1.8075e-06,-0.0022246,0.0020483,0.00066213,0.00061434,4.7049e-08,-6.3782e-07,0.002542,0.00048574,-4.7678e-06,-3.0796e-09,-0.0022466,0.00066213,0.0020702,0.99745,-0.071338,0.00010994,-0.00010969,7.337e-06,1,-0.071338,-0.99745,-5.0694e-07,-0.00038996,0.00054387,0.00033183,1.2214e-08,-1.5979e-07,0.00013426,-0.0018347,0.0015044,0.00033031,3.4835e-08,-4.7803e-07,0.00048008,1,1,16.02,1706,0,3000
6.4829e-14,6.4829e-14,0.75111,111.96,86.704,7.9942,0.00072725,-0.0095141,0.24671,101.92,0,0,0,199.41,9792.2,1749.9,0.17936,86.704,112.53,0.99745,-0.071338,0.00011028,-0.00011013,6.0642e-06,1,-0.071338,-0.99745,-1.8075e-06,-0.0022246,0.0020483,0.00066213,0.00061434,4.7049e-08,-6.3782e-07,0.002542,0.00048574,-4.7678e-06,-3.0796e-09,-0.0022466,0.00066213,0.0020702,0.99745,-0.071338,0.00010994,-0.00010969,7.337e-06,1,-0.071338,-0.99745,-5.0694e-07,-0.00038996,0.00054387,0.00033183,1.2214e-08,-1.5979e-07,0.00013426,-0.0018347,0.0015044,0.00033031,3.4835e-08,-4.7803e-07,0.00048008,1,1,16.08,1706.1,0,3000
7.6164e-14,7.6164e-14,0.75111,111.96,86.704,7.9942,0.00072725,-0.0095141,0.24671,101.92,0,0,0,199.41,9792.2,1749.9,0.17936,86.704,112.53,0.99745,-0.071338,0.00011028,-0.00011013,6.0642e-06,1,-0.071338,-0.99745,-1.8075e-06,-0.0022246,0.0020483,0.00066213,0.00061434,4.7049e-08,-6.3782e-07,0.002542,0.00048574,-4.7678e-06,-3.0796e-09,-0.0022466,0.00066213,0.0020702,0.99745,-0.071338,0.00010994,-0.00010969,7.337e-06,1,-0.071338,-0.99745,-5.0694e-07,-0.00038996,0.00054387,0.00033183,1.2214e-08,-1.5979e-07,0.00013426,-0.0018347,0.0015044,0.00033031,3.4835e-08,-4.7803e-07,0.00048008,1,1,16.14,1706.1,0,3000
8.7476e-14,8.7476e-14,0.75111,111.96,86.704,7.9942,0.00072725,-0.0095141,0.24671,101.92,0,0,0,199.41,9792.2,1749.9,0.17936,86.704,112.53,0.99745,-0.071338,0.00011028,-0.00011013,6.0642e-06,1,-0.071338,-0.99745,-1.8075e-06,-0.0022246,0.0020483,0.00066213,0.00061434,4.7049e-08,-6.3782e-07,0.002542,0.00048574,-4.7678e-06,-3.0796e-09,-0.0022466,0.00066213,0.0020702,0.99745,-0.071338,0.00010994,-0.00010969,7.337e-06,1,-0.071338,-0.99745,-5.0694e-07,-0.00038996,0.00054387,0.00033183,1.2214e-08,-1.5979e-07,0.00013426,-0.0018347,0.0015044,0.00033031,3.4835e-08,-4.7803e-07,0.00048008,1,1,16.2,1706.2,0,3000
9.8812e-14,9.8812e-14,0.75111,111.96,86.704,7.9942,0.00072725,-0.0095141,0.24671,101.92,0,0,0,199.41,9792.2,1749.9,0.17936,86.704,112.53,0.99745,-0.071338,0.00011028,-0.00011013,6.0642e-06,1,-0.071338,-0.99745,-1.8075e-06,-0.0022246,0.0020483,0.00066213,0.00061434,4.7049e-08,-6.3782e-07,0.002542,0.00048574,-4.7678e-06,-3.0796e-09,-0.0022466,0.00066213,0.0020702,0.99745,-0.071338,0.00010994,-0.00010969,7.337e-06,1,-0.071338,-0.99745,-5.0694e-07,-0.00038996,0.00054387,0.00033183,1.2214e-08,-1.5979e-07,0.00013426,-0.0018347,0.0015044,0.00033031,3.4835e-08,-4.7803e-07,0.00048008,1,1,16.26,1706.3,0,3000
1.1012e-13,1.1012e-13,0.75111,111.96,86.704,7.9942,0.00072725,-0.0095141,0.24671,101.92,0,0,0,199.41,9792.2,1749.9,0.17936,86.704,112.53,0.99745,-0.071338,0.00011028,-0.00011013,6.0642e-06,1,-0.071338,-0.99745,-1.8075e-06,-0.0022246,0.0020483,0.00066213,0.00061434,4.7049e-08,-6.3782e-07,0.002542,0.00048574,-4.7678e-06,-3.0796e-09,-0.0022466,0.00066213,0.0020702,0.99745,-0.071338,0.00010994,-0.00010969,7.337e-06,1,-0.071338,-0.99745,-5.0694e-07,-0.00038996,0.00054387,0.00033183,1.2214e-08,-1.5979e-07,0.00013426,-0.0018347,0.0015044,0.00033031,3.4835e-08,-4.7803e-07,0.00048008,1,1,16.32,1706.3,0,3000
1.2146e-13,1.2146e-13,0.75111,111.96,86.704,7.9942,0.00072725,-0.0095141,0.24671,101.92,0,0,0,199.41,9792.2,1749.9,0.17936,86.704,112.53,0.99745,-0.071338,0.00011028,-0.00011013,6.0642e-06,1,-0.071338,-0.99745,-1.8075e-06,-0.0022246,0.0020483,0.00066213,0.00061434,4.7049e-08,-6.3782e-07,0.002542,0.00048574,-4.7678e-06,-3.0796e-09,-0.0022466,0.00066213,0.0020702,0.99745,-0.071338,0.00010994,-0.00010969,7.337e-06,1,-0.071338,-0.99745,-5.0694e-07,-0.00038996,0.00054387,0.00033183,1.2214e-08,-1.5979e-07,0.00013426,-0.0018347,0.0015044,0.00033031,3.4835e-08,-4.7803e-07,0.00048008,1,1,16.38,1706.4,0,3000
1.3277e-13,1.3277e-13,0.75111,111.96,86.704,7.9942,0.00072725,-0.0095141,0.24671,101.92,0,0,0,199.41,9792.2,1749.9,0.17936,86.704,112.53,0.99745,-0.071338,0.00011028,-0.00011013,6.0642e-06,1,-0.071338,-0.99745,-1.8075e-06,-0.0022246,0.0020483,0.00066213,0.00061434,4.7049e-08,-6.3782e-07,0.002542,0.00048574,-4.7678e-06,-3.0796e-09,-0.0022466,0.00066213,0.0020702,0.99745,-0.071338,0.00010994,-0.00010969,7.337e-06,1,-0.071338,-0.99745,-5.0694e-07,-0.00038996,0.00054387,0.00033183,1.2214e-08,-1.5979e-07,0.00013426,-0.0018347,0.0015044,0.00033031,3.4835e-08,-4.7803e-07,0.00048008,1,1,16.44,1706.4,0,3000
1.4411e-13,1.4411e-13,0.75111,111.96,86.704,7.9942,0.00072725,-0.0095141,0.24671,101.92,0,0,0,199.41,9792.2,1749.9,0.17936,86.704,112.53,0.99745,-0.071338,0.00011028,-0.00011013,6.0642e-06,1,-0.071338,-0.99745,-1.8075e-06,-0.0022246,0.0020483,0.00066213,0.00061434,4.7049e-08,-6.3782e-07,0.002542,0.00048574,-4.7678e-06,-3.0796e-09,-0.0022466,0.00066213,0.0020702,0.99745,-0.071338,0.00010994,-0.00010969,7.337e-06,1,-0.071338,-0.99745,-5.0694e-07,-0.00038996,0.00054387,0.00033183,1.2214e-08,-1.5979e-07,0.00013426,-0.0018347,0.0015044,0.00033031,3.4835e-08,-4.7803e-07,0.00048008,1,1,16.5,1706.5,0,3000
1.5544e-13,1.5544e-13,0.75111,111.96,86.704,7.9942,0.00072725,-0.0095141,0.24671,101.92,0,0,0,199.41,9792.2,1749.9,0.17936,86.704,112.53,0.99745,-0.071338,0.00011028,-0.00011013,6.0642e-06,1,-0.071338,-0.99745,-1.8075e-06,-0.0022246,0.0020483,0.00066213,0.00061434,4.7049e-08,-6.3782e-07,0.002542,0.00048574,-4.7678e-06,-3.0796e-09,-0.0022466,0.00066213,0.0020702,0.99745,-0.071338,0.00010994,-0.00010969,7.337e-06,1,-0.071338,-0.99745,-5.0694e-07,-0.00038996,0.00054387,0.00033183,1.2214e-08,-1.5979e-07,0.00013426,-0.0018347,0.0015044,0.00033031,3.4835e-08,-4.7803e-07,0.00048008,1,1,16.56,1706.6,0,3000
1.6675e-13,1.6675e-13,0.75111,111.96,86.704,7.9942,0.00072725,-0.0095141,0.24671,101.92,0,0,0,199.41,9792.2,1749.9,0.17936,86.704,112.53,0.99745,-0.071338,0.00011028,-0.00011013,6.0642e-06,1,-0.071338,-0.99745,-1.8075e-06,-0.0022246,0.0020483,0.00066213,0.00061434,4.7049e-08,-6.3782e-07,0.002542,0.00048574,-4.7678e-06,-3.0796e-09,-0.0022466,0.00066213,0.0020702,0.99745,-0.071338,0.00010994,-0.00010969,7.337e-06,1,-0.071338,-0.99745,-5.0694e-07,-0.00038996,0.00054387,0.00033183,1.2214e-08,-1.5979e-07,0.00013426,-0.0018347,0.0015044,0.00033031,3.4835e-08,-4.7803e-07,0.00048008,1,1,16.62,1706.6,0,3000
1.7809e-13,1.7809e-13,0.75111,111.96,86.704,7.9942,0.00072725,-0.0095141,0.24671,101.92,0,0,0,199.41,9792.2,1749.9,0.17936,86.704,112.53,0.99745,-0.071338,0.00011028,-0.00011013,6.0642e-06,1,-0.071338,-0.99745,-1.8075e-06,-0.0022246,0.0020483,0.00066213,0.00061434,4.7049e-08,-6.3782e-07,0.002542,0.00048574,-4.7678e-06,-3.0796e-09,-0.0022466,0.00066213,0.0020702,0.99745,-0.071338,0.00010994,-0.00010969,7.337e-06,1,-0.071338,-0.99745,-5.0694e-07,-0.00038996,0.00054387,0.00033183,1.2214e-08,-1.5979e-07,0.00013426,-0.0018347,0.0015044,0.00033031,3.4835e-08,-4.7803e-07,0.00048008,1,1,16.68,1706.7,0,3000
1.894e-13,1.894e-13,0.75111,111.96,86.704,7.9942,0.00072725,-0.0095141,0.24671,101.92,0,0,0,199.41,9792.2,1749.9,0.17936,86.704,112.53,0.99745,-0.071338,0.00011028,-0.00011013,6.0642e-06,1,-0.071338,-0.99745,-1.8075e-06,-0.0022246,0.0020483,0.00066213,0.00061434,4.7049e-08,-6.3782e-07,0.002542,0.00048574,-4.7678e-06,-3.0796e-09,-0.0022466,0.00066213,0.0020702,0.99745,-0.071338,0.00010994,-0.00010969,7.337e-06,1,-0.071338,-0.99745,-5.0694e-07,-0.00038996,0.00054387,0.00033183,1.2214e-08,-1.5979e-07,0.00013426,-0.0018347,0.0015044,0.00033031,3.4835e-08,-4.7803e-07,0.00048008,1,1,16.74,1706.7,0,3000
2.0074e-13,2.0074e-13,0.75111,111.96,86.704,7.9942,0.00072725,-0.0095141,0.24671,101.92,0,0,0,199.41,9792.2,1749.9,0.17936,86.704,112.53,0.99745,-0.071338,0.00011028,-0.00011013,6.0642e-06,1,-0.071338,-0.99745,-1.8075e-06,-0.0022246,0.0020483,0.00066213,0.00061434,4.7049e-08,-6.3782e-07,0.002542,0.00048574,-4.7678e-06,-3.0796e-09,-0.0022466,0.00066213,0.0020702,0.99745,-0.071338,0.00010994,-0.00010969,7.337e-06,1,-0.071338,-0.99745,-5.0694e-07,-0.00038996,0.00054387,0.00033183,1.2214e-08,-1.5979e-07,0.00013426,-0.0018347,0.0015044,0.00033031,3.4835e-08,-4.7803e-07,0.00048008,1,1,16.8,1706.8,0,3000
2.1205e-13,2.1205e-13,0.75111,111.96,86.704,7.9942,0.00072725,-0.0095141,0.24671,101.92,0,0,0,199.41,9792.2,1749.9,0.17936,86.704,112.53,0.99745,-0.071338,0.00011028,-0.00011013,6.0642e-06,1,-0.071338,-0.99745,-1.8075e-06,-0.0022246,0.0020483,0.00066213,0.00061434,4.7049e-08,-6.3782e-07,0.002542,0.00048574,-4.7678e-06,-3.0796e-09,-0.0022466,0.00066213,0.0020702,0.99745,-0.071338,0.00010994,-0.00010969,7.337e-06,1,-0.071338,-0.99745,-5.0694e-07,-0.00038996,0.00054387,0.00033183,1.2214e-08,-1.5979e-07,0.00013426,-0.0018347,0.0015044,0.00033031,3.4835e-08,-4.7803e-07,0.00048008,1,1,16.86,1706.9,0,3000
2.2339e-13,2.2339e-13,0.75111,111.96,86.704,7.9942,0.00072725,-0.0095141,0.24671,101.92,0,0,0,199.41,9792.2,1749.9,0.17936,86.704,112.53,0.99745,-0.071338,0.00011028,-0.00011013,6.0642e-06,1,-0.071338,-0.99745,-1.8075e-06,-0.0022246,0.0020483,0.00066213,0.00061434,4.7049e-08,-6.3782e-07,0.002542,0.00048574,-4.7678e-06,-3.0796e-09,-0.0022466,0.00066213,0.0020702,0.99745,-0.071338,0.00010994,-0.00010969,7.337e-06,1,-0.071338,-0.99745,-5.0694e-07,-0.00038996,0.00054387,0.00033183,1.2214e-08,-1.5979e-07,0.00013426,-0.0018347,0.0015044,0.00033031,3.4835e-08,-4.7803e-07,0.00048008,1,1,16.92,1706.9,0,3000
2.347e-13,2.347e-13,0.75111,111.96,86.704,7.9942,0.00072725,-0.0095141,0.24671,101.92,0,0,0,199.41,9792.2,1749.9,0.17936,86.704,112.53,0.99745,-0.071338,0.00011028,-0.00011013,6.0642e-06,1,-0.071338,-0.99745,-1.8075e-06,-0.0022246,0.0020483,0.00066213,0.00061434,4.7049e-08,-6.3782e-07,0.002542,0.00048574,-4.7678e-06,-3.0796e-09,-0.0022466,0.00066213,0.0020702,0.99745,-0.071338,0.00010994,-0.00010969,7.337e-06,1,-0.071338,-0.99745,-5.0694e-07,-0.00038996,0.00054387,0.00033183,1.2214e-08,-1.5979e-07,0.00013426,-0.0018347,0.0015044,0.00033031,3.4835e-08,-4.7803e-07,0.00048008,1,1,16.98,1707,0,3000
2.3007e-13,2.3007e-13,0.81371,111.58,87.758,7.9626,0.00067257,-0.0087867,0.23498,101.92,0,0,0,200.15,9890.6,2403.5,0.24422,87.758,112.15,0.99745,-0.071338,0.0001007,-0.00010057,5.3829e-06,1,-0.071338,-0.99745,-1.8052e-06,-0.0022203,0.0020457,0.00066205,0.00061335,4.0121e-08,-5.3952e-07,0.0025379,0.00048754,-4.7517e-06,-3.0694e-09,-0.0022422,0.00066205,0.0020677,0.99745,-0.071338,9.3141e-05,-9.2943e-05,6.1015e-06,1,-0.071338,-0.99745,-5.444e-07,-0.0003909,0.00053923,0.00033921,1.1296e-08,-1.4757e-07,0.00013373,-0.0018294,0.0015065,0.00032284,2.8825e-08,-3.9195e-07,0.00047962,1,1,17.04,1707,0,3000
2.1748e-13,2.1748e-13,0.81371,111.58,87.758,7.9626,0.00067257,-0.0087867,0.23498,101.92,0,0,0,200.15,9890.6,2403.5,0.24422,87.758,112.15,0.99745,-0.071338,0.0001007,-0.00010057,5.3829e-06,1,-0.071338,-0.99745,-1.8052e-06,-0.0022203,0.0020457,0.00066205,0.00061335,4.0121e-08,-5.3952e-07,0.0025379,0.00048754,-4.7517e-06,-3.0694e-09,-0.0022422,0.00066205,0.0020677,0.99745,-0.071338,9.3141e-05,-9.2943e-05,6.1015e-06,1,-0.071338,-0.99745,-5.444e-07,-0.0003909,0.00053923,0.00033921,1.1296e-08,-1.4757e-07,0.00013373,-0.0018294,0.0015065,0.00032284,2.8825e-08,-3.9195e-07,0.00047962,1,1,17.1,1707.1,0,3000
2.0486e-13,2.0486e-13,0.81371,111.58,87.758,7.9626,0.00067257,-0.0087867,0.23498,101.92,0,0,0,200.15,9890.6,2403.5,0.24422,87.758,112.15,0.99745,-0.071338,0.0001007,-0.00010057,5.3829e-06,1,-0.071338,-0.99745,-1.8052e-06,-0.0022203,0.0020457,0.00066205,0.00061335,4.0121e-08,-5.3952e-07,0.0025379,0.00048754,-4.7517e-06,-3.0694e-09,-0.0022422,0.00066205,0.0020677,0.99745,-0.071338,9.3141e-05,-9.2943e-05,6.1015e-06,1,-0.071338,-0.99745,-5.444e-07,-0.0003909,0.00053923,0.00033921,1.1296e-08,-1.4757e-07,0.00013373,-0.0018294,0.0015065,0.00032284,2.8825e-08,-3.9195e-07,0.00047962,1,1,17.16,1707.2,0,3000
1.9227e-13,1.9227e-13,0.81371,111.58,87.758,7.9626,0.00067257,-0.0087867,0.23498,101.92,0,0,0,200.15,9890.6,2403.5,0.24422,87.758,112.15,0.99745,-0.071338,0.0001007,-0.00010057,5.3829e-06,1,-0.071338,-0.99745,-1.8052e-06,-0.0022203,0.0020457,0.00066205,0.00061335,4.0121e-08,-5.3952e-07,0.0025379,0.00048754,-4.7517e-06,-3.0694e-09,-0.0022422,0.00066205,0.0020677,0.99745,-0.071338,9.3141e-05,-9.2943e-05,6.1015e-06,1,-0.071338,-0.99745,-5.444e-07,-0.0003909,0.00053923,0.00033921,1.1296e-08,-1.4757e-07,0.00013373,-0.0018294,0.0015065,0.00032284,2.8825e-08,-3.9195e-07,0.00047962,1,1,17.22,1707.2,0,3000
1.7965e-13,1.7965e-13,0.81371,111.58,87.758,7.9626,0.00067257,-0.0087867,0.23498,101.92,0,0,0,200.15,9890.6,2403.5,0.24422,87.758,112.15,0.99745,-0.071338,0.0001007,-0.00010057,5.3829e-06,1,-0.071338,-0.99745,-1.8052e-06,-0.0022203,0.0020457,0.00066205,0.00061335,4.0121e-08,-5.3952e-07,0.0025379,0.00048754,-4.7517e-06,-3.0694e-09,-0.0022422,0.00066205,0.0020677,0.99745,-0.071338,9.3141e-05,-9.2943e-05,6.1015e-06,1,-0.071338,-0.99745,-5.444e-07,-0.0003909,0.00053923,0.00033921,1.1296e-08,-1.4757e-07,0.00013373,-0.0018294,0.0015065,0.00032284,2.8825e-08,-3.9195e-07,0.00047962,1,1,17.28,1707.3,0,3000
1.6706e-13,1.6706e-13,0.81371,111.58,87.758,7.9626,0.00067257,-0.0087867,0.23498,101.92,0,0,0,200.15,9890.6,2403.5,0.24422,87.758,112.15,0.99745,-0.071338,0.0001007,-0.00010057,5.3829e-06,1,-0.071338,-0.99745,-1.8052e-06,-0.0022203,0.0020457,0.00066205,0.00061335,4.0121e-08,-5.3952e-07,0.0025379,0.00048754,-4.7517e-06,-3.0694e-09,-0.0022422,0.00066205,0.0020677,0.99745,-0.071338,9.3141e-05,-9.2943e-05,6.1015e-06,1,-0.071338,-0.99745,-5.444e-07,-0.0003909,0.00053923,0.00033921,1.1296e-08,-1.4757e-07,0.00013373,-0.0018294,0.0015065,0.00032284,2.8825e-08,-3.9195e-07,0.00047962,1,1,17.34,1707.3,0,3000
1.5445e-13,1.5445e-13,0.81371,111.58,87.758,7.9626,0.00067257,-0.0087867,0.23498,101.92,0,0,0,200.15,9890.6,2403.5,0.24422,87.758,112.15,0.99745,-0.071338,0.0001007,-0.00010057,5.3829e-06,1,-0.071338,-0.99745,-1.8052e-06,-0.0022203,0.0020457,0.00066205,0.00061335,4.0121e-08,-5.3952e-07,0.0025379,0.00048754,-4.7517e-06,-3.0694e-09,-0.0022422,0.00066205,0.0020677,0.99745,-0.071338,9.3141e-05,-9.2943e-05,6.1015e-06,1,-0.071338,-0.99745,-5.444e-07,-0.0003909,0.00053923,0.00033921,1.1296e-08,-1.4757e-07,0.00013373,-0.0018294,0.0015065,0.00032284,2.8825e-08,-3.9195e-07,0.00047962,1,1,17.4,1707.4,0,3000
1.4186e-13,1.4186e-13,0.81371,111.58,87.758,7.9626,0.00067257,-0.0087867,0.23498,101.92,0,0,0,200.15,9890.6,2403.5,0.24422,87.758,112.15,0.99745,-0.071338,0.0001007,-0.00010057,5.3829e-06,1,-0.071338,-0.99745,-1.8052e-06,-0.0022203,0.0020457,0.00066205,0.00061335,4.0121e-08,-5.3952e-07,0.0025379,0.00048754,-4.7517e-06,-3.0694e-09,-0.0022422,0.00066205,0.0020677,0.99745,-0.071338,9.3141e-05,-9.2943e-05,6.1015e-06,1,-0.071338,-0.99745,-5.444e-07,-0.0003909,0.00053923,0.00033921,1.1296e-08,-1.4757e-07,0.00013373,-0.0018294,0.0015065,0.00032284,2.8825e-08,-3.9195e-07,0.00047962,1,1,17.46,1707.5,0,3000
1.2924e-13,1.2924e-13,0.81371,111.58,87.758,7.9626,0.00067257,-0.0087867,0.23498,101.92,0,0,0,200.15,9890.6,2403.5,0.24422,87.758,112.15,0.99745,-0.071338,0.0001007,-0.00010057,5.3829e-06,1,-0.071338,-0.99745,-1.8052e-06,-0.0022203,0.0020457,0.00066205,0.00061335,4.0121e-08,-5.3952e-07,0.0025379,0.00048754,-4.7517e-06,-3.0694e-09,-0.0022422,0.00066205,0.0020677,0.99745,-0.071338,9.3141e-05,-9.2943e-05,6.1015e-06,1,-0.071338,-0.99745,-5.444e-07,-0.0003909,0.00053923,0.00033921,1.1296e-08,-1.4757e-07,0.00013373,-0.0018294,0.0015065,0.00032284,2.8825e-08,-3.9195e-07,0.00047962,1,1,17.52,1707.5,0,3000
1.1665e-13,1.1665e-13,0.81371,111.58,87.758,7.9626,0.00067257,-0.0087867,0.23498,101.92,0,0,0,200.15,9890.6,2403.5,0.24422,87.758,112.15,0.99745,-0.071338,0.0001007,-0.00010057,5.3829e-06,1,-0.071338,-0.99745,-1.8052e-06,-0.0022203,0.0020457,0.00066205,0.00061335,4.0121e-08,-5.3952e-07,0.0025379,0.00048754,-4.7517e-06,-3.0694e-09,-0.0022422,0.00066205,0.0020677,0.99745,-0.071338,9.3141e-05,-9.2943e-05,6.1015e-06,1,-0.071338,-0.99745,-5.444e-07,-0.0003909,0.00053923,0.00033921,1.1296e-08,-1.4757e-07,0.00013373,-0.0018294,0.0015065,0.00032284,2.8825e-08,-3.9195e-07,0.00047962,1,1,17.58,1707.6,0,3000
1.0404e-13,1.0404e-13,0.81371,111.58,87.758,7.9626,0.00067257,-0.0087867,0.23498,101.92,0,0,0,200.15,9890.6,2403.5,0.24422,87.758,112.15,0.99745,-0.071338,0.0001007,-0.00010057,5.3829e-06,1,-0.071338,-0.99745,-1.8052e-06,-0.0022203,0.0020457,0.00066205,0.00061335,4.0121e-08,-5.3952e-07,0.0025379,0.00048754,-4.7517e-06,-3.0694e-09,-0.0022422,0.00066205,0.0020677,0.99745,-0.071338,9.3141e-05,-9.2943e-05,6.1015e-06,1,-0.071338,-0.99745,-5.444e-07,-0.0003909,0.00053923,0.00033921,1.1296e-08,-1.4757e-07,0.00013373,-0.0018294,0.0015065,0.00032284,2.8825e-08,-3.9195e-07,0.00047962,1,1,17.64,1707.6,0,3000
9.1448e-14,9.1448e-14,0.81371,111.58,87.758,7.9626,0.00067257,-0.0087867,0.23498,101.92,0,0,0,200.15,9890.6,2403.5,0.24422,87.758,112.15,0.99745,-0.071338,0.0001007,-0.00010057,5.3829e-06,1,-0.071338,-0.99745,-1.8052e-06,-0.0022203,0.0020457,0.00066205,0.00061335,4.0121e-08,-5.3952e-07,0.0025379,0.00048754,-4.7517e-06,-3.0694e-09,-0.0022422,0.00066205,0.0020677,0.99745,-0.071338,9.3141e-05,-9.2943e-05,6.1015e-06,1,-0.071338,-0.99745,-5.444e-07,-0.0003909,0.00053923,0.00033921,1.1296e-08,-1.4757e-07,0.00013373,-0.0018294,0.0015065,0.00032284,2.8825e-08,-3.9195e-07,0.00047962,1,1,17.7,1707.7,0,3000
7.8833e-14,7.8833e-14,0.81371,111.58,87.758,7.9626,0.00067257,-0.0087867,0.23498,101.92,0,0,0,200.15,9890.6,2403.5,0.24422,87.758,112.15,0.99745,-0.071338,0.0001007,-0.00010057,5.3829e-06,1,-0.071338,-0.99745,-1.8052e-06,-0.0022203,0.0020457,0.00066205,0.00061335,4.0121e-08,-5.3952e-07,0.0025379,0.00048754,-4.7517e-06,-3.0694e-09,-0.0022422,0.00066205,0.0020677,0.99745,-0.071338,9.3141e-05,-9.2943e-05,6.1015e-06,1,-0.071338,-0.99745,-5.444e-07,-0.0003909,0.00053923,0.00033921,1.1296e-08,-1.4757e-07,0.00013373,-0.0018294,0.0015065,0.00032284,2.8825e-08,-3.9195e-07,0.00047962,1,1,17.76,1707.8,0,3000
6.6243e-14,6.6243e-14,0.81371,111.58,87.758,7.9626,0.00067257,-0.0087867,0.23498,101.92,0,0,0,200.15,9890.6,2403.5,0.24422,87.758,112.15,0.99745,-0.071338,0.0001007,-0.00010057,5.3829e-06,1,-0.071338,-0.99745,-1.8052e-06,-0.0022203,0.0020457,0.00066205,0.00061335,4.0121e-08,-5.3952e-07,0.0025379,0.00048754,-4.7517e-06,-3.0694e-09,-0.0022422,0.00066205,0.0020677,0.99745,-0.071338,9.3141e-05,-9.2943e-05,6.1015e-06,1,-0.071338,-0.99745,-5.444e-07,-0.0003909,0.00053923,0.00033921,1.1296e-08,-1.4757e-07,0.00013373,-0.0018294,0.0015065,0.00032284,2.8825e-08,-3.9195e-07,0.00047962,1,1,17.82,1707.8,0,3000
5.3627e-14,5.3627e-14,0.81371,111.58,87.758,7.9626,0.00067257,-0.0087867,0.23498,101.92,0,0,0,200.15,9890.6,2403.5,0.24422,87.758,112.15,0.99745,-0.071338,0.0001007,-0.00010057,5.3829e-06,1,-0.071338,-0.99745,-1.8052e-06,-0.0022203,0.0020457,0.00066205,0.00061335,4.0121e-08,-5.3952e-07,0.0025379,0.00048754,-4.7517e-06,-3.0694e-09,-0.0022422,0.00066205,0.0020677,0.99745,-0.071338,9.3141e-05,-9.2943e-05,6.1015e-06,1,-0.071338,-0.99745,-5.444e-07,-0.0003909,0.00053923,0.00033921,1.1296e-08,-1.4757e-07,0.00013373,-0.0018294,0.0015065,0.00032284,2.8825e-08,-3.9195e-07,0.00047962,1,1,17.88,1707.9,0,3000
4.1037e-14,4.1037e-14,0.81371,111.58,87.758,7.9626,0.00067257,-0.0087867,0.23498,101.92,0,0,0,200.15,9890.6,2403.5,0.24422,87.758,112.15,0.99745,-0.071338,0.0001007,-0.00010057,5.3829e-06,1,-0.071338,-0.99745,-1.8052e-06,-0.0022203,0.0020457,0.00066205,0.00061335,4.0121e-08,-5.3952e-07,0.0025379,0.00048754,-4.7517e-06,-3.0694e-09,-0.0022422,0.00066205,0.0020677,0.99745,-0.071338,9.3141e-05,-9.2943e-05,6.1015e-06,1,-0.071338,-0.99745,-5.444e-07,-0.0003909,0.00053923,0.00033921,1.1296e-08,-1.4757e-07,0.00013373,-0.0018294,0.0015065,0.00032284,2.8825e-08,-3.9195e-07,0.00047962,1,1,17.94,1707.9,0,3000
2.8422e-14,2.8422e-14,0.86968,110.82,89.519,7.904,0.00052001,-0.0067468,0.21871,101.92,0,0,0,201.21,10032,3035,0.30438,89.519,111.38,0.99745,-0.071338,7.5847e-05,-7.5775e-05,3.7055e-06,1,-0.071338,-0.99745,-1.7096e-06,-0.0022151,0.0020432,0.00066197,0.00061225,3.1735e-08,-4.212e-07,0.0025334,0.00049012,-4.7335e-06,-3.0581e-09,-0.002237,0.00066197,0.0020651,0.99745,-0.071338,7.2851e-05,-7.2707e-05,4.626e-06,1,-0.071338,-0.99745,-5.725e-07,-0.00039253,0.00053076,0.0003519,8.7335e-09,-1.1331e-07,0.00013275,-0.0018226,0.0015125,0.00031007,2.3001e-08,-3.0788e-07,0.0004795,1,1,18,1708,0,3000
2.3968e-14,2.3968e-14,0.86968,110.82,89.519,7.904,0.00052001,-0.0067468,0.21871,101.92,0,0,0,201.21,10032,3035,0.30438,89.519,111.38,0.99745,-0.071338,7.5847e-05,-7.5775e-05,3.7055e-06,1,-0.071338,-0.99745,-1.7096e-06,-0.0022151,0.0020432,0.00066197,0.00061225,3.1735e-08,-4.212e-07,0.0025334,0.00049012,-4.7335e-06,-3.0581e-09,-0.002237,0.00066197,0.0020651,0.99745,-0.071338,7.2851e-05,-7.2707e-05,4.626e-06,1,-0.071338,-0.99745,-5.725e-07,-0.00039253,0.00053076,0.0003519,8.7335e-09,-1.1331e-07,0.00013275,-0.0018226,0.0015125,0.00031007,2.3001e-08,-3.0788e-07,0.0004795,1,1,18.06,1708.1,0,3000
1.9523e-14,1.9523e-14,0.86968,110.82,89.519,7.904,0.00052001,-0.0067468,0.21871,101.92,0,0,0,201.21,10032,3035,0.30438,89.519,111.38,0.99745,-0.071338,7.5847e-05,-7.5775e-05,3.7055e-06,1,-0.071338,-0.99745,-1.7096e-06,-0.0022151,0.0020432,0.00066197,0.00061225,3.1735e-08,-4.212e-07,0.0025334,0.00049012,-4.7335e-06,-3.0581e-09,-0.002237,0.00066197,0.0020651,0.99745,-0.071338,7.2851e-05,-7.2707e-05,4.626e-06,1,-0.071338,-0.99745,-5.725e-07,-0.00039253,0.00053076,0.0003519,8.7335e-09,-1.1331e-07,0.00013275,-0.0018226,0.0015125,0.00031007,2.3001e-08,-3.0788e-07,0.0004795,1,1,18.12,1708.1,0,3000
1.5068e-14,1.5068e-14,0.86968,110.82,89.519,7.904,0.00052001,-0.0067468,0.21871,101.92,0,0,0,201.21,10032,3035,0.30438,89.519,111.38,0.99745,-0.071338,7.5847e-05,-7.5775e-05,3.7055e-06,1,-0.071338,-0.99745,-1.7096e-06,-0.0022151,0.0020432,0.00066197,0.00061225,3.1735e-08,-4.212e-07,0.0025334,0.00049012,-4.7335e-06,-3.0581e-09,-0.002237,0.00066197,0.0020651,0.99745,-0.071338,7.2851e-05,-7.2707e-05,4.626e-06,1,-0.071338,-0.99745,-5.725e-07,-0.00039253,0.00053076,0.0003519,8.7335e-09,-1.1331e-07,0.00013275,-0.0018226,0.0015125,0.00031007,2.3001e-08,-3.0788e-07,0.0004795,1,1,18.18,1708.2,0,3000
1.0623e-14,1.0623e-14,0.86968,110.82,89.519,7.904,0.00052001,-0.0067468,0.21871,101.92,0,0,0,201.21,10032,3035,0.30438,89.519,111.38,0.99745,-0.071338,7.5847e-05,-7.5775e-05,3.7055e-06,1,-0.071338,-0.99745,-1.7096e-06,-0.0022151,0.0020432,0.00066197,0.00061225,3.1735e-08,-4.212e-07,0.0025334,0.00049012,-4.7335e-06,-3.0581e-09,-0.002237,0.00066197,0.0020651,0.99745,-0.071338,7.2851e-05,-7.2707e-05,4.626e-06,1,-0.071338,-0.99745,-5.725e-07,-0.00039253,0.00053076,0.0003519,8.7335e-09,-1.1331e-07,0.00013275,-0.0018226,0.0015125,0.00031007,2.3001e-08,-3.0788e-07,0.0004795,1,1,18.24,1708.2,0,3000
6.1692e-15,6.1692e-15,0.86968,110.82,89.519,7.904,0.00052001,-0.0067468,0.21871,101.92,0,0,0,201.21,10032,3035,0.30438,89.519,111.38,0.99745,-0.071338,7.5847e-05,-7.5775e-05,3.7055e-06,1,-0.071338,-0.99745,-1.7096e-06,-0.0022151,0.0020432,0.00066197,0.00061225,3.1735e-08,-4.212e-07,0.0025334,0.00049012,-4.7335e-06,-3.0581e-09,-0.002237,0.00066197,0.0020651,0.99745,-0.071338,7.2851e-05,-7.2707e-05,4.626e-06,1,-0.071338,-0.99745,-5.725e-07,-0.00039253,0.00053076,0.0003519,8.7335e-09,-1.1331e-07,0.00013275,-0.0018226,0.0015125,0.00031007,2.3001e-08,-3.0788e-07,0.0004795,1,1,18.3,1708.3,0,3000
1.7242e-15,1.7242e-15,0.86968,110.82,89.519,7.904,0.00052001,-0.0067468,0.21871,101.92,0,0,0,201.21,10032,3035,0.30438,89.519,111.38,0.99745,-0.071338,7.5847e-05,-7.5775e-05,3.7055e-06,1,-0.071338,-0.99745,-1.7096e-06,-0.0022151,0.0020432,0.00066197,0.00061225,3.1735e-08,-4.212e-07,0.0025334,0.00049012,-4.7335e-06,-3.0581e-09,-0.002237,0.00066197,0.0020651,0.99745,-0.071338,7.2851e-05,-7.2707e-05,4.626e-06,1,-0.071338,-0.99745,-5.725e-07,-0.00039253,0.00053076,0.0003519,8.7335e-09,-1.1331e-07,0.00013275,-0.0018226,0.0015125,0.00031007,2.3001e-08,-3.0788e-07,0.0004795,1,1,18.36,1708.4,0,3000
-2.73e-15,-2.73e-15,0.86968,110.82,89.519,7.904,0.00052001,-0.0067468,0.21871,101.92,0,0,0,201.21,10032,3035,0.30438,89.519,111.38,0.99745,-0.071338,7.5847e-05,-7.5775e-05,3.7055e-06,1,-0.071338,-0.99745,-1.7096e-06,-0.0022151,0.0020432,0.00066197,0.00061225,3.1735e-08,-4.212e-07,0.0025334,0.00049012,-4.7335e-06,-3.0581e-09,-0.002237,0.00066197,0.0020651,0.99745,-0.071338,7.2851e-05,-7.2707e-05,4.626e-06,1,-0.071338,-0.99745,-5.725e-07,-0.00039253,0.00053076,0.0003519,8.7335e-09,-1.1331e-07,0.00013275,-0.0018226,0.0015125,0.00031007,2.3001e-08,-3.0788e-07,0.0004795,1,1,18.42,1708.4,0,3000
-7.175e-15,-7.175e-15,0.86968,110.82,89.519,7.904,0.00052001,-0.0067468,0.21871,101.92,0,0,0,201.21,10032,3035,0.30438,89.519,111.38,0.99745,-0.071338,7.5847e-05,-7.5775e-05,3.7055e-06,1,-0.071338,-0.99745,-1.7096e-06,-0.0022151,0.0020432,0.00066197,0.00061225,3.1735e-08,-4.212e-07,0.0025334,0.00049012,-4.7335e-06,-3.0581e-09,-0.002237,0.00066197,0.0020651,0.99745,-0.071338,7.2851e-05,-7.2707e-05,4.626e-06,1,-0.071338,-0.99745,-5.725e-07,-0.00039253,0.00053076,0.0003519,8.7335e-09,-1.1331e-07,0.00013275,-0.0018226,0.0015125,0.00031007,2.3001e-08,-3.0788e-07,0.0004795,1,1,18.48,1708.5,0,3000
-1.1629e-14,-1.1629e-14,0.86968,110.82,89.519,7.904,0.00052001,-0.0067468,0.21871,101.92,0,0,0,201.21,10032,3035,0.30438,89.519,111.38,0.99745,-0.071338,7.5847e-05,-7.5775e-05,3.7055e-06,1,-0.071338,-0.99745,-1.7096e-06,-0.0022151,0.0020432,0.00066197,0.00061225,3.1735e-08,-4.212e-07,0.0025334,0.00049012,-4.7335e-06,-3.0581e-09,-0.002237,0.00066197,0.0020651,0.99745,-0.071338,7.2851e-05,-7.2707e-05,4.626e-06,1,-0.071338,-0.99745,-5.725e-07,-0.00039253,0.00053076,0.0003519,8.7335e-09,-1.1331e-07,0.00013275,-0.0018226,0.0015125,0.00031007,2.3001e-08,-3.0788e-07,0.0004795,1,1,18.54,1708.5,0,3000
-1.6074e-14,-1.6074e-14,0.86968,110.82,89.519,7.904,0.00052001,-0.0067468,0.21871,101.92,0,0,0,201.21,10032,3035,0.30438,89.519,111.38,0.99745,-0.071338,7.5847e-05,-7.5775e-05,3.7055e-06,1,-0.071338,-0.99745,-1.7096e-06,-0.0022151,0.0020432,0.00066197,0.00061225,3.1735e-08,-4.212e-07,0.0025334,0.00049012,-4.7335e-06,-3.0581e-09,-0.002237,0.00066197,0.0020651,0.99745,-0.071338,7.2851e-05,-7.2707e-05,4.626e-06,1,-0.071338,-0.99745,-5.725e-07,-0.00039253,0.00053076,0.0003519,8.7335e-09,-1.1331e-07,0.00013275,-0.0018226,0.0015125,0.00031007,2.3001e-08,-3.0788e-07,0.0004795,1,1,18.6,1708.6,0,3000
-2.0528e-14,-2.0528e-14,0.86968,110.82,89.519,7.904,0.00052001,-0.0067468,0.21871,101.92,0,0,0,201.21,10032,3035,0.30438,89.519,111.38,0.99745,-0.071338,7.5847e-05,-7.5775e-05,3.7055e-06,1,-0.071338,-0.99745,-1.7096e-06,-0.0022151,0.0020432,0.00066197,0.00061225,3.1735e-08,-4.212e-07,0.0025334,0.00049012,-4.7335e-06,-3.0581e-09,-0.002237,0.00066197,0.0020651,0.99745,-0.071338,7.2851e-05,-7.2707e-05,4.626e-06,1,-0.071338,-0.99745,-5.725e-07,-0.00039253,0.00053076,0.0003519,8.7335e-09,-1.1331e-07,0.00013275,-0.0018226,0.0015125,0.00031007,2.3001e-08,-3.0788e-07,0.0004795,1,1,18.66,1708.7,0,3000
-2.4973e-14,-2.4973e-14,0.86968,110.82,89.519,7.904,0.00052001,-0.0067468,0.21871,101.92,0,0,0,201.21,10032,3035,0.30438,89.519,111.38,0.99745,-0.071338,7.5847e-05,-7.5775e-05,3.7055e-06,1,-0.071338,-0.99745,-1.7096e-06,-0.0022151,0.0020432,0.00066197,0.00061225,3.1735e-08,-4.212e-07,0.0025334,0.00049012,-4.7335e-06,-3.0581e-09,-0.002237,0.00066197,0.0020651,0.99745,-0.071338,7.2851e-05,-7.2707e-05,4.626e-06,1,-0.071338,-0.99745,-5.725e-07,-0.00039253,0.00053076,0.0003519,8.7335e-09,-1.1331e-07,0.00013275,-0.0018226,0.0015125,0.00031007,2.3001e-08,-3.0788e-07,0.0004795,1,1,18.72,1708.7,0,3000
-2.9428e-14,-2.9428e-14,0.86968,110.82,89.519,7.904,0.00052001,-0.0067468,0.21871,101.92,0,0,0,201.21,10032,3035,0.30438,89.519,111.38,0.99745,-0.071338,7.5847e-05,-7.5775e-05,3.7055e-06,1,-0.071338,-0.99745,-1.7096e-06,-0.0022151,0.0020432,0.00066197,0.00061225,3.1735e-08,-4.212e-07,0.0025334,0.00049012,-4.7335e-06,-3.0581e-09,-0.002237,0.00066197,0.0020651,0.99745,-0.071338,7.2851e-05,-7.2707e-05,4.626e-06,1,-0.071338,-0.99745,-5.725e-07,-0.00039253,0.00053076,0.0003519,8.7335e-09,-1.1331e-07,0.00013275,-0.0018226,0.0015125,0.00031007,2.3001e-08,-3.0788e-07,0.0004795,1,1,18.78,1708.8,0,3000
-3.3873e-14,-3.3873e-14,0.86968,110.82,89.519,7.904,0.00052001,-0.0067468,0.21871,101.92,0,0,0,201.21,10032,3035,0.30438,89.519,111.38,0.99745,-0.071338,7.5847e-05,-7.5775e-05,3.7055e-06,1,-0.071338,-0.99745,-1.7096e-06,-0.0022151,0.0020432,0.00066197,0.00061225,3.1735e-08,-4.212e-07,0.0025334,0.00049012,-4.7335e-06,-3.0581e-09,-0.002237,0.00066197,0.0020651,0.99745,-0.071338,7.2851e-05,-7.2707e-05,4.626e-06,1,-0.071338,-0.99745,-5.725e-07,-0.00039253,0.00053076,0.0003519,8.7335e-09,-1.1331e-07,0.00013275,-0.0018226,0.0015125,0.00031007,2.3001e-08,-3.0788e-07,0.0004795,1,1,18.84,1708.8,0,3000
-3.8327e-14,-3.8327e-14,0.86968,110.82,89.519,7.904,0.00052001,-0.0067468,0.21871,101.92,0,0,0,201.21,10032,3035,0.30438,89.519,111.38,0.99745,-0.071338,7.5847e-05,-7.5775e-05,3.7055e-06,1,-0.071338,-0.99745,-1.7096e-06,-0.0022151,0.0020432,0.00066197,0.00061225,3.1735e-08,-4.212e-07,0.0025334,0.00049012,-4.7335e-06,-3.0581e-09,-0.002237,0.00066197,0.0020651,0.99745,-0.071338,7.2851e-05,-7.2707e-05,4.626e-06,1,-0.071338,-0.99745,-5.725e-07,-0.00039253,0.00053076,0.0003519,8.7335e-09,-1.1331e-07,0.00013275,-0.0018226,0.0015125,0.00031007,2.3001e-08,-3.0788e-07,0.0004795,1,1,18.9,1708.9,0,3000
-4.2772e-14,-4.2772e-14,0.86968,110.82,89.519,7.904,0.00052001,-0.0067468,0.21871,101.92,0,0,0,201.21,10032,3035,0.30438,89.519,111.38,0.99745,-0.071338,7.5847e-05,-7.5775e-05,3.7055e-06,1,-0.071338,-0.99745,-1.7096e-06,-0.0022151,0.0020432,0.00066197,0.00061225,3.1735e-08,-4.212e-07,0.0025334,0.00049012,-4.7335e-06,-3.0581e-09,-0.002237,0.00066197,0.0020651,0.99745,-0.071338,7.2851e-05,-7.2707e-05,4.626e-06,1,-0.071338,-0.99745,-5.725e-07,-0.00039253,0.00053076,0.0003519,8.7335e-09,-1.1331e-07,0.00013275,-0.0018226,0.0015125,0.00031007,2.3001e-08,-3.0788e-07,0.0004795,1,1,18.96,1709,0,3000
-4.2176e-14,-4.2176e-14,0.93378,109.72,91.788,7.8203,0.00041917,-0.005485,0.19327,101.92,0,0,0,202.44,10198,3790.4,0.37447,91.788,110.28,0.99745,-0.071338,6.0176e-05,-6.0126e-05,2.8462e-06,1,-0.071338,-0.99745,-1.4503e-06,-0.0022095,0.0020408,0.00066188,0.00061109,2.7533e-08,-3.6099e-07,0.0025286,0.00049312,-4.7142e-06,-3.0463e-09,-0.0022314,0.00066188,0.0020626,0.99745,-0.071338,6.2565e-05,-6.245e-05,3.8544e-06,1,-0.071338,-0.99745,-6.1048e-07,-0.00039444,0.00051906,0.0003685,7.0399e-09,-9.2119e-08,0.00013134,-0.0018151,0.0015217,0.00029338,2.0493e-08,-2.6887e-07,0.00047975,1,1,19.02,1709,0,3000
-3.1503e-14,-3.1503e-14,0.93378,109.72,91.788,7.8203,0.00041917,-0.005485,0.19327,101.92,0,0,0,202.44,10198,3790.4,0.37447,91.788,110.28,0.99745,-0.071338,6.0176e-05,-6.0126e-05,2.8462e-06,1,-0.071338,-0.99745,-1.4503e-06,-0.0022095,0.0020408,0.00066188,0.00061109,2.7533e-08,-3.6099e-07,0.0025286,0.00049312,-4.7142e-06,-3.0463e-09,-0.0022314,0.00066188,0.0020626,0.99745,-0.071338,6.2565e-05,-6.245e-05,3.8544e-06,1,-0.071338,-0.99745,-6.1048e-07,-0.00039444,0.00051906,0.0003685,7.0399e-09,-9.2119e-08,0.00013134,-0.0018151,0.0015217,0.00029338,2.0493e-08,-2.6887e-07,0.00047975,1,1,19.08,1709.1,0,3000
-2.0807e-14,-2.0807e-14,0.93378,109.72,91.788,7.8203,0.00041917,-0.005485,0.19327,101.92,0,0,0,202.44,10198,3790.4,0.37447,91.788,110.28,0.99745,-0.071338,6.0176e-05,-6.0126e-05,2.8462e-06,1,-0.071338,-0.99745,-1.4503e-06,-0.0022095,0.0020408,0.00066188,0.00061109,2.7533e-08,-3.6099e-07,0.0025286,0.00049312,-4.7142e-06,-3.0463e-09,-0.0022314,0.00066188,0.0020626,0.99745,-0.071338,6.2565e-05,-6.245e-05,3.8544e-06,1,-0.071338,-0.99745,-6.1048e-07,-0.00039444,0.00051906,0.0003685,7.0399e-09,-9.2119e-08,0.00013134,-0.0018151,0.0015217,0.00029338,2.0493e-08,-2.6887e-07,0.00047975,1,1,19.14,1709.1,0,3000
-1.0134e-14,-1.0134e-14,0.93378,109.72,91.788,7.8203,0.00041917,-0.005485,0.19327,101.92,0,0,0,202.44,10198,3790.4,0.37447,91.788,110.28,0.99745,-0.071338,6.0176e-05,-6.0126e-05,2.8462e-06,1,-0.071338,-0.99745,-1.4503e-06,-0.0022095,0.0020408,0.00066188,0.00061109,2.7533e-08,-3.6099e-07,0.0025286,0.00049312,-4.7142e-06,-3.0463e-09,-0.0022314,0.00066188,0.0020626,0.99745,-0.071338,6.2565e-05,-6.245e-05,3.8544e-06,1,-0.071338,-0.99745,-6.1048e-07,-0.00039444,0.00051906,0.0003685,7.0399e-09,-9.2119e-08,0.00013134,-0.0018151,0.0015217,0.00029338,2.0493e-08,-2.6887e-07,0.00047975,1,1,19.2,1709.2,0,3000
5.6129e-16,5.6129e-16,0.93378,109.72,91.788,7.8203,0.00041917,-0.005485,0.19327,101.92,0,0,0,202.44,10198,3790.4,0.37447,91.788,110.28,0.99745,-0.071338,6.0176e-05,-6.0126e-05,2.8462e-06,1,-0.071338,-0.99745,-1.4503e-06,-0.0022095,0.0020408,0.00066188,0.00061109,2.7533e-08,-3.6099e-07,0.0025286,0.00049312,-4.7142e-06,-3.0463e-09,-0.0022314,0.00066188,0.0020626,0.99745,-0.071338,6.2565e-05,-6.245e-05,3.8544e-06,1,-0.071338,-0.99745,-6.1048e-07,-0.00039444,0.00051906,0.0003685,7.0399e-09,-9.2119e-08,0.00013134,-0.0018151,0.0015217,0.00029338,2.0493e-08,-2.6887e-07,0.00047975,1,1,19.26,1709.3,0,3000
1.1235e-14,1.1235e-14,0.93378,109.72,91.788,7.8203,0.00041917,-0.005485,0.19327,101.92,0,0,0,202.44,10198,3790.4,0.37447,91.788,110.28,0.99745,-0.071338,6.0176e-05,-6.0126e-05,2.8462e-06,1,-0.071338,-0.99745,-1.4503e-06,-0.0022095,0.0020408,0.00066188,0.00061109,2.7533e-08,-3.6099e-07,0.0025286,0.00049312,-4.7142e-06,-3.0463e-09,-0.0022314,0.00066188,0.0020626,0.99745,-0.071338,6.2565e-05,-6.245e-05,3.8544e-06,1,-0.071338,-0.99745,-6.1048e-07,-0.00039444,0.00051906,0.0003685,7.0399e-09,-9.2119e-08,0.00013134,-0.0018151,0.0015217,0.00029338,2.0493e-08,-2.6887e-07,0.00047975,1,1,19.32,1709.3,0,3000
2.193e-14,2.193e-14,0.93378,109.72,91.788,7.8203,0.00041917,-0.005485,0.19327,101.92,0,0,0,202.44,10198,3790.4,0.37447,91.788,110.28,0.99745,-0.071338,6.0176e-05,-6.0126e-05,2.8462e-06,1,-0.071338,-0.99745,-1.4503e-06,-0.0022095,0.0020408,0.00066188,0.00061109,2.7533e-08,-3.6099e-07,0.0025286,0.00049312,-4.7142e-06,-3.0463e-09,-0.0022314,0.00066188,0.0020626,0.99745,-0.071338,6.2565e-05,-6.245e-05,3.8544e-06,1,-0.071338,-0.99745,-6.1048e-07,-0.00039444,0.00051906,0.0003685,7.0399e-09,-9.2119e-08,0.00013134,-0.0018151,0.0015217,0.00029338,2.0493e-08,-2.6887e-07,0.00047975,1,1,19.38,1709.4,0,3000
3.2603e-14,3.2603e-14,0.93378,109.72,91.788,7.8203,0.00041917,-0.005485,0.19327,101.92,0,0,0,202.44,10198,3790.4,0.37447,91.788,110.28,0.99745,-0.071338,6.0176e-05,-6.0126e-05,2.8462e-06,1,-0.071338,-0.99745,-1.4503e-06,-0.0022095,0.0020408,0.00066188,0.00061109,2.7533e-08,-3.6099e-07,0.0025286,0.00049312,-4.7142e-06,-3.0463e-09,-0.0022314,0.00066188,0.0020626,0.99745,-0.071338,6.2565e-05,-6.245e-05,3.8544e-06,1,-0.071338,-0.99745,-6.1048e-07,-0.00039444,0.00051906,0.0003685,7.0399e-09,-9.2119e-08,0.00013134,-0.0018151,0.0015217,0.00029338,2.0493e-08,-2.6887e-07,0.00047975,1,1,19.44,1709.4,0,3000
4.3299e-14,4.3299e-14,0.93378,109.72,91.788,7.8203,0.00041917,-0.005485,0.19327,101.92,0,0,0,202.44,10198,3790.4,0.37447,91.788,110.28,0.99745,-0.071338,6.0176e-05,-6.0126e-05,2.8462e-06,1,-0.071338,-0.99745,-1.4503e-06,-0.0022095,0.0020408,0.00066188,0.00061109,2.7533e-08,-3.6099e-07,0.0025286,0.00049312,-4.7142e-06,-3.0463e-09,-0.0022314,0.00066188,0.0020626,0.99745,-0.071338,6.2565e-05,-6.245e-05,3.8544e-06,1,-0.071338,-0.99745,-6.1048e-07,-0.00039444,0.00051906,0.0003685,7.0399e-09,-9.2119e-08,0.00013134,-0.0018151,0.0015217,0.00029338,2.0493e-08,-2.6887e-07,0.00047975,1,1,19.5,1709.5,0,3000
5.3994e-14,5.3994e-14,0.93378,109.72,91.788,7.8203,0.00041917,-0.005485,0.19327,101.92,0,0,0,202.44,10198,3790.4,0.37447,91.788,110.28,0.99745,-0.071338,6.0176e-05,-6.0126e-05,2.8462e-06,1,-0.071338,-0.99745,-1.4503e-06,-0.0022095,0.0020408,0.00066188,0.00061109,2.7533e-08,-3.6099e-07,0.0025286,0.00049312,-4.7142e-06,-3.0463e-09,-0.0022314,0.00066188,0.0020626,0.99745,-0.071338,6.2565e-05,-6.245e-05,3.8544e-06,1,-0.071338,-0.99745,-6.1048e-07,-0.00039444,0.00051906,0.0003685,7.0399e-09,-9.2119e-08,0.00013134,-0.0018151,0.0015217,0.00029338,2.0493e-08,-2.6887e-07,0.00047975,1,1,19.56,1709.6,0,3000
6.4667e-14,6.4667e-14,0.93378,109.72,91.788,7.8203,0.00041917,-0.005485,0.19327,101.92,0,0,0,202.44,10198,3790.4,0.37447,91.788,110.28,0.99745,-0.071338,6.0176e-05,-6.0126e-05,2.8462e-06,1,-0.071338,-0.99745,-1.4503e-06,-0.0022095,0.0020408,0.00066188,0.00061109,2.7533e-08,-3.6099e-07,0.0025286,0.00049312,-4.7142e-06,-3.0463e-09,-0.0022314,0.00066188,0.0020626,0.99745,-0.071338,6.2565e-05,-6.245e-05,3.8544e-06,1,-0.071338,-0.99745,-6.1048e-07,-0.00039444,0.00051906,0.0003685,7.0399e-09,-9.2119e-08,0.00013134,-0.0018151,0.0015217,0.00029338,2.0493e-08,-2.6887e-07,0.00047975,1,1,19.62,1709.6,0,3000
7.5363e-14,7.5363e-14,0.93378,109.72,91.788,7.8203,0.00041917,-0.005485,0.19327,101.92,0,0,0,202.44,10198,3790.4,0.37447,91.788,110.28,0.99745,-0.071338,6.0176e-05,-6.0126e-05,2.8462e-06,1,-0.071338,-0.99745,-1.4503e-06,-0.0022095,0.0020408,0.00066188,0.00061109,2.7533e-08,-3.6099e-07,0.0025286,0.00049312,-4.7142e-06,-3.0463e-09,-0.0022314,0.00066188,0.0020626,0.99745,-0.071338,6.2565e-05,-6.245e-05,3.8544e-06,1,-0.071338,-0.99745,-6.1048e-07,-0.00039444,0.00051906,0.0003685,7.0399e-09,-9.2119e-08,0.00013134,-0.0018151,0.0015217,0.00029338,2.0493e-08,-2.6887e-07,0.00047975,1,1,19.68,1709.7,0,3000
8.6036e-14,8.6036e-14,0.93378,109.72,91.788,7.8203,0.00041917,-0.005485,0.19327,101.92,0,0,0,202.44,10198,3790.4,0.37447,91.788,110.28,0.99745,-0.071338,6.0176e-05,-6.0126e-05,2.8462e-06,1,-0.071338,-0.99745,-1.4503e-06,-0.0022095,0.0020408,0.00066188,0.00061109,2.7533e-08,-3.6099e-07,0.0025286,0.00049312,-4.7142e-06,-3.0463e-09,-0.0022314,0.00066188,0.0020626,0.99745,-0.071338,6.2565e-05,-6.245e-05,3.8544e-06,1,-0.071338,-0.99745,-6.1048e-07,-0.00039444,0.00051906,0.0003685,7.0399e-09,-9.2119e-08,0.00013134,-0.0018151,0.0015217,0.00029338,2.0493e-08,-2.6887e-07,0.00047975,1,1,19.74,1709.7,0,3000
9.6731e-14,9.6731e-14,0.93378,109.72,91.788,7.8203,0.00041917,-0.005485,0.19327,101.92,0,0,0,202.44,10198,3790.4,0.37447,91.788,110.28,0.99745,-0.071338,6.0176e-05,-6.0126e-05,2.8462e-06,1,-0.071338,-0.99745,-1.4503e-06,-0.0022095,0.0020408,0.00066188,0.00061109,2.7533e-08,-3.6099e-07,0.0025286,0.00049312,-4.7142e-06,-3.0463e-09,-0.0022314,0.00066188,0.0020626,0.99745,-0.071338,6.2565e-05,-6.245e-05,3.8544e-06,1,-0.071338,-0.99745,-6.1048e-07,-0.00039444,0.00051906,0.0003685,7.0399e-09,-9.2119e-08,0.00013134,-0.0018151,0.0015217,0.00029338,2.0493e-08,-2.6887e-07,0.00047975,1,1,19.8,1709.8,0,3000
1.074e-13,1.074e-13,0.93378,109.72,91.788,7.8203,0.00041917,-0.005485,0.19327,101.92,0,0,0,202.44,10198,3790.4,0.37447,91.788,110.28,0.99745,-0.071338,6.0176e-05,-6.0126e-05,2.8462e-06,1,-0.071338,-0.99745,-1.4503e-06,-0.0022095,0.0020408,0.00066188,0.00061109,2.7533e-08,-3.6099e-07,0.0025286,0.00049312,-4.7142e-06,-3.0463e-09,-0.0022314,0.00066188,0.0020626,0.99745,-0.071338,6.2565e-05,-6.245e-05,3.8544e-06,1,-0.071338,-0.99745,-6.1048e-07,-0.00039444,0.00051906,0.0003685,7.0399e-09,-9.2119e-08,0.00013134,-0.0018151,0.0015217,0.00029338,2.0493e-08,-2.6887e-07,0.00047975,1,1,19.86,1709.9,0,3000
1.181e-13,1.181e-13,0.93378,109.72,91.788,7.8203,0.00041917,-0.005485,0.19327,101.92,0,0,0,202.44,10198,3790.4,0.37447,91.788,110.28,0.99745,-0.071338,6.0176e-05,-6.0126e-05,2.8462e-06,1,-0.071338,-0.99745,-1.4503e-06,-0.0022095,0.0020408,0.00066188,0.00061109,2.7533e-08,-3.6099e-07,0.0025286,0.00049312,-4.7142e-06,-3.0463e-09,-0.0022314,0.00066188,0.0020626,0.99745,-0.071338,6.2565e-05,-6.245e-05,3.8544e-06,1,-0.071338,-0.99745,-6.1048e-07,-0.00039444,0.00051906,0.0003685,7.0399e-09,-9.2119e-08,0.00013134,-0.0018151,0.0015217,0.00029338,2.0493e-08,-2.6887e-07,0.00047975,1,1,19.92,1709.9,0,3000
1.2877e-13,1.2877e-13,0.93378,109.72,91.788,7.8203,0.00041917,-0.005485,0.19327,101.92,0,0,0,202.44,10198,3790.4,0.37447,91.788,110.28,0.99745,-0.071338,6.0176e-05,-6.0126e-05,2.8462e-06,1,-0.071338,-0.99745,-1.4503e-06,-0.0022095,0.0020408,0.00066188,0.00061109,2.7533e-08,-3.6099e-07,0.0025286,0.00049312,-4.7142e-06,-3.0463e-09,-0.0022314,0.00066188,0.0020626,0.99745,-0.071338,6.2565e-05,-6.245e-05,3.8544e-06,1,-0.071338,-0.99745,-6.1048e-07,-0.00039444,0.00051906,0.0003685,7.0399e-09,-9.2119e-08,0.00013134,-0.0018151,0.0015217,0.00029338,2.0493e-08,-2.6887e-07,0.00047975,1,1,19.98,1710,0,3000
1.3143e-13,1.3143e-13,0.98888,108.46,94.059,7.7259,0.00049072,-0.0066372,0.15472,101.93,0,0,0,203.51,10342,4473.8,0.43632,94.059,109.01,0.99745,-0.071338,7.1086e-05,-7.0982e-05,4.0052e-06,1,-0.071338,-0.99745,-1.0687e-06,-0.0022044,0.0020383,0.0006618,0.00060999,2.9006e-08,-3.7913e-07,0.002524,0.00049572,-4.696e-06,-3.0351e-09,-0.0022262,0.0006618,0.0020601,0.99745,-0.071338,6.583e-05,-6.571e-05,4.0235e-06,1,-0.071338,-0.99745,-6.7439e-07,-0.0003961,0.00050638,0.00038545,8.2415e-09,-1.1147e-07,0.00012976,-0.0018083,0.0015319,0.00027635,2.0764e-08,-2.6766e-07,0.00048023,1,1,20.04,1710,0,3000
1.3007e-13,1.3007e-13,0.98888,108.46,94.059,7.7259,0.00049072,-0.0066372,0.15472,101.93,0,0,0,203.51,10342,4473.8,0.43632,94.059,109.01,0.99745,-0.071338,7.1086e-05,-7.0982e-05,4.0052e-06,1,-0.071338,-0.99745,-1.0687e-06,-0.0022044,0.0020383,0.0006618,0.00060999,2.9006e-08,-3.7913e-07,0.002524,0.00049572,-4.696e-06,-3.0351e-09,-0.0022262,0.0006618,0.0020601,0.99745,-0.071338,6.583e-05,-6.571e-05,4.0235e-06,1,-0.071338,-0.99745,-6.7439e-07,-0.0003961,0.00050638,0.00038545,8.2415e-09,-1.1147e-07,0.00012976,-0.0018083,0.0015319,0.00027635,2.0764e-08,-2.6766e-07,0.00048023,1,1,20.1,1710.1,0,3000
1.2871e-13,1.2871e-13,0.98888,108.46,94.059,7.7259,0.00049072,-0.0066372,0.15472,101.93,0,0,0,203.51,10342,4473.8,0.43632,94.059,109.01,0.99745,-0.071338,7.1086e-05,-7.0982e-05,4.0052e-06,1,-0.071338,-0.99745,-1.0687e-06,-0.0022044,0.0020383,0.0006618,0.00060999,2.9006e-08,-3.7913e-07,0.002524,0.00049572,-4.696e-06,-3.0351e-09,-0.0022262,0.0006618,0.0020601,0.99745,-0.071338,6.583e-05,-6.571e-05,4.0235e-06,1,-0.071338,-0.99745,-6.7439e-07,-0.0003961,0.00050638,0.00038545,8.2415e-09,-1.1147e-07,0.00012976,-0.0018083,0.0015319,0.00027635,2.0764e-08,-2.6766e-07,0.00048023,1,1,20.16,1710.2,0,3000
1.2736e-13,1.2736e-13,0.98888,108.46,94.059,7.7259,0.00049072,-0.0066372,0.15472,101.93,0,0,0,203.51,10342,4473.8,0.43632,94.059,109.01,0.99745,-0.071338,7.1086e-05,-7.0982e-05,4.0052e-06,1,-0.071338,-0.99745,-1.0687e-06,-0.0022044,0.0020383,0.0006618,0.00060999,2.9006e-08,-3.7913e-07,0.002524,0.00049572,-4.696e-06,-3.0351e-09,-0.0022262,0.0006618,0.0020601,0.99745,-0.071338,6.583e-05,-6.571e-05,4.0235e-06,1,-0.071338,-0.99745,-6.7439e-07,-0.0003961,0.00050638,0.00038545,8.2415e-09,-1.1147e-07,0.00012976,-0.0018083,0.0015319,0.00027635,2.0764e-08,-2.6766e-07,0.00048023,1,1,20.22,1710.2,0,3000
1.26e-13,1.26e-13,0.98888,108.46,94.059,7.7259,0.00049072,-0.0066372,0.15472,101.93,0,0,0,203.51,10342,4473.8,0.43632,94.059,109.01,0.99745,-0.071338,7.1086e-05,-7.0982e-05,4.0052e-06,1,-0.071338,-0.99745,-1.0687e-06,-0.0022044,0.0020383,0.0006618,0.00060999,2.9006e-08,-3.7913e-07,0.002524,0.00049572,-4.696e-06,-3.0351e-09,-0.0022262,0.0006618,0.0020601,0.99745,-0.071338,6.583e-05,-6.571e-05,4.0235e-06,1,-0.071338,-0.99745,-6.7439e-07,-0.0003961,0.00050638,0.00038545,8.2415e-09,-1.1147e-07,0.00012976,-0.0018083,0.0015319,0.00027635,2.0764e-08,-2.6766e-07,0.00048023,1,1,20.28,1710.3,0,3000
1.2464e-13,1.2464e-13,0.98888,108.46,94.059,7.7259,0.00049072,-0.0066372,0.15472,101.93,0,0,0,203.51,10342,4473.8,0.43632,94.059,109.01,0.99745,-0.071338,7.1086e-05,-7.0982e-05,4.0052e-06,1,-0.071338,-0.99745,-1.0687e-06,-0.0022044,0.0020383,0.0006618,0.00060999,2.9006e-08,-3.7913e-07,0.002524,0.00049572,-4.696e-06,-3.0351e-09,-0.0022262,0.0006618,0.0020601,0.99745,-0.071338,6.583e-05,-6.571e-05,4.0235e-06,1,-0.071338,-0.99745,-6.7439e-07,-0.0003961,0.00050638,0.00038545,8.2415e-09,-1.1147e-07,0.00012976,-0.0018083,0.0015319,0.00027635,2.0764e-08,-2.6766e-07,0.00048023,1,1,20.34,1710.3,0,3000
1.2328e-13,1.2328e-13,0.98888,108.46,94.059,7.7259,0.00049072,-0.0066372,0.15472,101.93,0,0,0,203.51,10342,4473.8,0.43632,94.059,109.01,0.99745,-0.071338,7.1086e-05,-7.0982e-05,4.0052e-06,1,-0.071338,-0.99745,-1.0687e-06,-0.0022044,0.0020383,0.0006618,0.00060999,2.9006e-08,-3.7913e-07,0.002524,0.00049572,-4.696e-06,-3.0351e-09,-0.0022262,0.0006618,0.0020601,0.99745,-0.071338,6.583e-05,-6.571e-05,4.0235e-06,1,-0.071338,-0.99745,-6.7439e-07,-0.0003961,0.00050638,0.00038545,8.2415e-09,-1.1147e-07,0.00012976,-0.0018083,0.0015319,0.00027635,2.0764e-08,-2.6766e-07,0.00048023,1,1,20.4,1710.4,0,3000
1.2192e-13,1.2192e-13,0.98888,108.46,94.059,7.7259,0.00049072,-0.0066372,0.15472,101.93,0,0,0,203.51,10342,4473.8,0.43632,94.059,109.01,0.99745,-0.071338,7.1086e-05,-7.0982e-05,4.0052e-06,1,-0.071338,-0.99745,-1.0687e-06,-0.0022044,0.0020383,0.0006618,0.00060999,2.9006e-08,-3.7913e-07,0.002524,0.00049572,-4.696e-06,-3.0351e-09,-0.0022262,0.0006618,0.0020601,0.99745,-0.071338,6.583e-05,-6.571e-05,4.0235e-06,1,-0.071338,-0.99745,-6.7439e-07,-0.0003961,0.00050638,0.00038545,8.2415e-09,-1.1147e-07,0.00012976,-0.0018083,0.0015319,0.00027635,2.0764e-08,-2.6766e-07,0.00048023,1,1,20.46,1710.5,0,3000
1.2056e-13,1.2056e-13,0.98888,108.46,94.059,7.7259,0.00049072,-0.0066372,0.15472,101.93,0,0,0,203.51,10342,4473.8,0.43632,94.059,109.01,0.99745,-0.071338,7.1086e-05,-7.0982e-05,4.0052e-06,1,-0.071338,-0.99745,-1.0687e-06,-0.0022044,0.0020383,0.0006618,0.00060999,2.9006e-08,-3.7913e-07,0.002524,0.00049572,-4.696e-06,-3.0351e-09,-0.0022262,0.0006618,0.0020601,0.99745,-0.071338,6.583e-05,-6.571e-05,4.0235e-06,1,-0.071338,-0.99745,-6.7439e-07,-0.0003961,0.00050638,0.00038545,8.2415e-09,-1.1147e-07,0.00012976,-0.0018083,0.0015319,0.00027635,2.0764e-08,-2.6766e-07,0.00048023,1,1,20.52,1710.5,0,3000
1.192e-13,1.192e-13,0.98888,108.46,94.059,7.7259,0.00049072,-0.0066372,0.15472,101.93,0,0,0,203.51,10342,4473.8,0.43632,94.059,109.01,0.99745,-0.071338,7.1086e-05,-7.0982e-05,4.0052e-06,1,-0.071338,-0.99745,-1.0687e-06,-0.0022044,0.0020383,0.0006618,0.00060999,2.9006e-08,-3.7913e-07,0.002524,0.00049572,-4.696e-06,-3.0351e-09,-0.0022262,0.0006618,0.0020601,0.99745,-0.071338,6.583e-05,-6.571e-05,4.0235e-06,1,-0.071338,-0.99745,-6.7439e-07,-0.0003961,0.00050638,0.00038545,8.2415e-09,-1.1147e-07,0.00012976,-0.0018083,0.0015319,0.00027635,2.0764e-08,-2.6766e-07,0.00048023,1,1,20.58,1710.6,0,3000
1.1784e-13,1.1784e-13,0.98888,108.46,94.059,7.7259,0.00049072,-0.0066372,0.15472,101.93,0,0,0,203.51,10342,4473.8,0.43632,94.059,109.01,0.99745,-0.071338,7.1086e-05,-7.0982e-05,4.0052e-06,1,-0.071338,-0.99745,-1.0687e-06,-0.0022044,0.0020383,0.0006618,0.00060999,2.9006e-08,-3.7913e-07,0.002524,0.00049572,-4.696e-06,-3.0351e-09,-0.0022262,0.0006618,0.0020601,0.99745,-0.071338,6.583e-05,-6.571e-05,4.0235e-06,1,-0.071338,-0.99745,-6.7439e-07,-0.0003961,0.00050638,0.00038545,8.2415e-09,-1.1147e-07,0.00012976,-0.0018083,0.0015319,0.00027635,2.0764e-08,-2.6766e-07,0.00048023,1,1,20.64,1710.6,0,3000
1.1649e-13,1.1649e-13,0.98888,108.46,94.059,7.7259,0.00049072,-0.0066372,0.15472,101.93,0,0,0,203.51,10342,4473.8,0.43632,94.059,109.01,0.99745,-0.071338,7.1086e-05,-7.0982e-05,4.0052e-06,1,-0.071338,-0.99745,-1.0687e-06,-0.0022044,0.0020383,0.0006618,0.00060999,2.9006e-08,-3.7913e-07,0.002524,0.00049572,-4.696e-06,-3.0351e-09,-0.0022262,0.0006618,0.0020601,0.99745,-0.071338,6.583e-05,-6.571e-05,4.0235e-06,1,-0.071338,-0.99745,-6.7439e-07,-0.0003961,0.00050638,0.00038545,8.2415e-09,-1.1147e-07,0.00012976,-0.0018083,0.0015319,0.00027635,2.0764e-08,-2.6766e-07,0.00048023,1,1,20.7,1710.7,0,3000
1.1513e-13,1.1513e-13,0.98888,108.46,94.059,7.7259,0.00049072,-0.0066372,0.15472,101.93,0,0,0,203.51,10342,4473.8,0.43632,94.059,109.01,0.99745,-0.071338,7.1086e-05,-7.0982e-05,4.0052e-06,1,-0.071338,-0.99745,-1.0687e-06,-0.0022044,0.0020383,0.0006618,0.00060999,2.9006e-08,-3.7913e-07,0.002524,0.00049572,-4.696e-06,-3.0351e-09,-0.0022262,0.0006618,0.0020601,0.99745,-0.071338,6.583e-05,-6.571e-05,4.0235e-06,1,-0.071338,-0.99745,-6.7439e-07,-0.0003961,0.00050638,0.00038545,8.2415e-09,-1.1147e-07,0.00012976,-0.0018083,0.0015319,0.00027635,2.0764e-08,-2.6766e-07,0.00048023,1,1,20.76,1710.8,0,3000
1.1377e-13,1.1377e-13,0.98888,108.46,94.059,7.7259,0.00049072,-0.0066372,0.15472,101.93,0,0,0,203.51,10342,4473.8,0.43632,94.059,109.01,0.99745,-0.071338,7.1086e-05,-7.0982e-05,4.0052e-06,1,-0.071338,-0.99745,-1.0687e-06,-0.0022044,0.0020383,0.0006618,0.00060999,2.9006e-08,-3.7913e-07,0.002524,0.00049572,-4.696e-06,-3.0351e-09,-0.0022262,0.0006618,0.0020601,0.99745,-0.071338,6.583e-05,-6.571e-05,4.0235e-06,1,-0.071338,-0.99745,-6.7439e-07,-0.0003961,0.00050638,0.00038545,8.2415e-09,-1.1147e-07,0.00012976,-0.0018083,0.0015319,0.00027635,2.0764e-08,-2.6766e-07,0.00048023,1,1,20.82,1710.8,0,3000
1.1241e-13,1.1241e-13,0.98888,108.46,94.059,7.7259,0.00049072,-0.0066372,0.15472,101.93,0,0,0,203.51,10342,4473.8,0.43632,94.059,109.01,0.99745,-0.071338,7.1086e-05,-7.0982e-05,4.0052e-06,1,-0.071338,-0.99745,-1.0687e-06,-0.0022044,0.0020383,0.0006618,0.00060999,2.9006e-08,-3.7913e-07,0.002524,0.00049572,-4.696e-06,-3.0351e-09,-0.0022262,0.0006618,0.0020601,0.99745,-0.071338,6.583e-05,-6.571e-05,4.0235e-06,1,-0.071338,-0.99745,-6.7439e-07,-0.0003961,0.00050638,0.00038545,8.2415e-09,-1.1147e-07,0.00012976,-0.0018083,0.0015319,0.00027635,2.0764e-08,-2.6766e-07,0.00048023,1,1,20.88,1710.9,0,3000
1.1105e-13,1.1105e-13,0.98888,108.46,94.059,7.7259,0.00049072,-0.0066372,0.15472,101.93,0,0,0,203.51,10342,4473.8,0.43632,94.059,109.01,0.99745,-0.071338,7.1086e-05,-7.0982e-05,4.0052e-06,1,-0.071338,-0.99745,-1.0687e-06,-0.0022044,0.0020383,0.0006618,0.00060999,2.9006e-08,-3.7913e-07,0.002524,0.00049572,-4.696e-06,-3.0351e-09,-0.0022262,0.0006618,0.0020601,0.99745,-0.071338,6.583e-05,-6.571e-05,4.0235e-06,1,-0.071338,-0.99745,-6.7439e-07,-0.0003961,0.00050638,0.00038545,8.2415e-09,-1.1147e-07,0.00012976,-0.0018083,0.0015319,0.00027635,2.0764e-08,-2.6766e-07,0.00048023,1,1,20.94,1710.9,0,3000
1.0969e-13,1.0969e-13,1.0276,105.15,92.634,7.4855,0.0005092,-0.0069944,0.12552,99.316,0,0,0,198.82,9888.2,4819.5,0.49226,92.634,105.69,0.99745,-0.071339,7.611e-05,-7.5964e-05,4.7474e-06,1,-0.071339,-0.99745,-6.8388e-07,-0.0022131,0.0020357,0.00066172,0.00061088,2.9611e-08,-3.8717e-07,0.0025283,0.0004843,-4.716e-06,-3.043e-09,-0.002235,0.00066172,0.0020576,0.99745,-0.071338,6.7024e-05,-6.6902e-05,4.097e-06,1,-0.071338,-0.99745,-6.8612e-07,-0.00038646,0.00048795,0.00038281,8.5519e-09,-1.1747e-07,0.00012572,-0.0018267,0.0015478,0.00027891,2.1059e-08,-2.697e-07,0.00048517,1,1,21,1711,0,3000
1.0577e-13,1.0577e-13,1.0276,105.15,92.634,7.4855,0.0005092,-0.0069944,0.12552,99.316,0,0,0,198.82,9888.2,4819.5,0.49226,92.634,105.69,0.99745,-0.071339,7.611e-05,-7.5964e-05,4.7474e-06,1,-0.071339,-0.99745,-6.8388e-07,-0.0022131,0.0020357,0.00066172,0.00061088,2.9611e-08,-3.8717e-07,0.0025283,0.0004843,-4.716e-06,-3.043e-09,-0.002235,0.00066172,0.0020576,0.99745,-0.071338,6.7024e-05,-6.6902e-05,4.097e-06,1,-0.071338,-0.99745,-6.8612e-07,-0.00038646,0.00048795,0.00038281,8.5519e-09,-1.1747e-07,0.00012572,-0.0018267,0.0015478,0.00027891,2.1059e-08,-2.697e-07,0.00048517,1,1,21.06,1711.1,0,3000
1.0186e-13,1.0186e-13,1.0276,105.15,92.634,7.4855,0.0005092,-0.0069944,0.12552,99.316,0,0,0,198.82,9888.2,4819.5,0.49226,92.634,105.69,0.99745,-0.071339,7.611e-05,-7.5964e-05,4.7474e-06,1,-0.071339,-0.99745,-6.8388e-07,-0.0022131,0.0020357,0.00066172,0.00061088,2.9611e-08,-3.8717e-07,0.0025283,0.0004843,-4.716e-06,-3.043e-09,-0.002235,0.00066172,0.0020576,0.99745,-0.071338,6.7024e-05,-6.6902e-05,4.097e-06,1,-0.071338,-0.99745,-6.8612e-07,-0.00038646,0.00048795,0.00038281,8.5519e-09,-1.1747e-07,0.00012572,-0.0018267,0.0015478,0.00027891,2.1059e-08,-2.697e-07,0.00048517,1,1,21.12,1711.1,0,3000
9.7936e-14,9.7936e-14,1.0276,105.15,92.634,7.4855,0.0005092,-0.0069944,0.12552,99.316,0,0,0,198.82,9888.2,4819.5,0.49226,92.634,105.69,0.99745,-0.071339,7.611e-05,-7.5964e-05,4.7474e-06,1,-0.071339,-0.99745,-6.8388e-07,-0.0022131,0.0020357,0.00066172,0.00061088,2.9611e-08,-3.8717e-07,0.0025283,0.0004843,-4.716e-06,-3.043e-09,-0.002235,0.00066172,0.0020576,0.99745,-0.071338,6.7024e-05,-6.6902e-05,4.097e-06,1,-0.071338,-0.99745,-6.8612e-07,-0.00038646,0.00048795,0.00038281,8.5519e-09,-1.1747e-07,0.00012572,-0.0018267,0.0015478,0.00027891,2.1059e-08,-2.697e-07,0.00048517,1,1,21.18,1711.2,0,3000
9.4023e-14,9.4023e-14,1.0276,105.15,92.634,7.4855,0.0005092,-0.0069944,0.12552,99.316,0,0,0,198.82,9888.2,4819.5,0.49226,92.634,105.69,0.99745,-0.071339,7.611e-05,-7.5964e-05,4.7474e-06,1,-0.071339,-0.99745,-6.8388e-07,-0.0022131,0.0020357,0.00066172,0.00061088,2.9611e-08,-3.8717e-07,0.0025283,0.0004843,-4.716e-06,-3.043e-09,-0.002235,0.00066172,0.0020576,0.99745,-0.071338,6.7024e-05,-6.6902e-05,4.097e-06,1,-0.071338,-0.99745,-6.8612e-07,-0.00038646,0.00048795,0.00038281,8.5519e-09,-1.1747e-07,0.00012572,-0.0018267,0.0015478,0.00027891,2.1059e-08,-2.697e-07,0.00048517,1,1,21.24,1711.2,0,3000
9.0103e-14,9.0103e-14,1.0276,105.15,92.634,7.4855,0.0005092,-0.0069944,0.12552,99.316,0,0,0,198.82,9888.2,4819.5,0.49226,92.634,105.69,0.99745,-0.071339,7.611e-05,-7.5964e-05,4.7474e-06,1,-0.071339,-0.99745,-6.8388e-07,-0.0022131,0.0020357,0.00066172,0.00061088,2.9611e-08,-3.8717e-07,0.0025283,0.0004843,-4.716e-06,-3.043e-09,-0.002235,0.00066172,0.0020576,0.99745,-0.071338,6.7024e-05,-6.6902e-05,4.097e-06,1,-0.071338,-0.99745,-6.8612e-07,-0.00038646,0.00048795,0.00038281,8.5519e-09,-1.1747e-07,0.00012572,-0.0018267,0.0015478,0.00027891,2.1059e-08,-2.697e-07,0.00048517,1,1,21.3,1711.3,0,3000
8.619e-14,8.619e-14,1.0276,105.15,92.634,7.4855,0.0005092,-0.0069944,0.12552,99.316,0,0,0,198.82,9888.2,4819.5,0.49226,92.634,105.69,0.99745,-0.071339,7.611e-05,-7.5964e-05,4.7474e-06,1,-0.071339,-0.99745,-6.8388e-07,-0.0022131,0.0020357,0.00066172,0.00061088,2.9611e-08,-3.8717e-07,0.0025283,0.0004843,-4.716e-06,-3.043e-09,-0.002235,0.00066172,0.0020576,0.99745,-0.071338,6.7024e-05,-6.6902e-05,4.097e-06,1,-0.071338,-0.99745,-6.8612e-07,-0.00038646,0.00048795,0.00038281,8.5519e-09,-1.1747e-07,0.00012572,-0.0018267,0.0015478,0.00027891,2.1059e-08,-2.697e-07,0.00048517,1,1,21.36,1711.4,0,3000
8.2269e-14,8.2269e-14,1.0276,105.15,92.634,7.4855,0.0005092,-0.0069944,0.12552,99.316,0,0,0,198.82,9888.2,4819.5,0.49226,92.634,105.69,0.99745,-0.071339,7.611e-05,-7.5964e-05,4.7474e-06,1,-0.071339,-0.99745,-6.8388e-07,-0.0022131,0.0020357,0.00066172,0.00061088,2.9611e-08,-3.8717e-07,0.0025283,0.0004843,-4.716e-06,-3.043e-09,-0.002235,0.00066172,0.0020576,0.99745,-0.071338,6.7024e-05,-6.6902e-05,4.097e-06,1,-0.071338,-0.99745,-6.8612e-07,-0.00038646,0.00048795,0.00038281,8.5519e-09,-1.1747e-07,0.00012572,-0.0018267,0.0015478,0.00027891,2.1059e-08,-2.697e-07,0.00048517,1,1,21.42,1711.4,0,3000
7.8356e-14,7.8356e-14,1.0276,105.15,92.634,7.4855,0.0005092,-0.0069944,0.12552,99.316,0,0,0,198.82,9888.2,4819.5,0.49226,92.634,105.69,0.99745,-0.071339,7.611e-05,-7.5964e-05,4.7474e-06,1,-0.071339,-0.99745,-6.8388e-07,-0.0022131,0.0020357,0.00066172,0.00061088,2.9611e-08,-3.8717e-07,0.0025283,0.0004843,-4.716e-06,-3.043e-09,-0.002235,0.00066172,0.0020576,0.99745,-0.071338,6.7024e-05,-6.6902e-05,4.097e-06,1,-0.071338,-0.99745,-6.8612e-07,-0.00038646,0.00048795,0.00038281,8.5519e-09,-1.1747e-07,0.00012572,-0.0018267,0.0015478,0.00027891,2.1059e-08,-2.697e-07,0.00048517,1,1,21.48,1711.5,0,3000
7.4436e-14,7.4436e-14,1.0276,105.15,92.634,7.4855,0.0005092,-0.0069944,0.12552,99.316,0,0,0,198.82,9888.2,4819.5,0.49226,92.634,105.69,0.99745,-0.071339,7.611e-05,-7.5964e-05,4.7474e-06,1,-0.071339,-0.99745,-6.8388e-07,-0.0022131,0.0020357,0.00066172,0.00061088,2.9611e-08,-3.8717e-07,0.0025283,0.0004843,-4.716e-06,-3.043e-09,-0.002235,0.00066172,0.0020576,0.99745,-0.071338,6.7024e-05,-6.6902e-05,4.097e-06,1,-0.071338,-0.99745,-6.8612e-07,-0.00038646,0.00048795,0.00038281,8.5519e-09,-1.1747e-07,0.00012572,-0.0018267,0.0015478,0.00027891,2.1059e-08,-2.697e-07,0.00048517,1,1,21.54,1711.5,0,3000
7.0523e-14,7.0523e-14,1.0276,105.15,92.634,7.4855,0.0005092,-0.0069944,0.12552,99.316,0,0,0,198.82,9888.2,4819.5,0.49226,92.634,105.69,0.99745,-0.071339,7.611e-05,-7.5964e-05,4.7474e-06,1,-0.071339,-0.99745,-6.8388e-07,-0.0022131,0.0020357,0.00066172,0.00061088,2.9611e-08,-3.8717e-07,0.0025283,0.0004843,-4.716e-06,-3.043e-09,-0.002235,0.00066172,0.0020576,0.99745,-0.071338,6.7024e-05,-6.6902e-05,4.097e-06,1,-0.071338,-0.99745,-6.8612e-07,-0.00038646,0.00048795,0.00038281,8.5519e-09,-1.1747e-07,0.00012572,-0.0018267,0.0015478,0.00027891,2.1059e-08,-2.697e-07,0.00048517,1,1,21.6,1711.6,0,3000
6.6602e-14,6.6602e-14,1.0276,105.15,92.634,7.4855,0.0005092,-0.0069944,0.12552,99.316,0,0,0,198.82,9888.2,4819.5,0.49226,92.634,105.69,0.99745,-0.071339,7.611e-05,-7.5964e-05,4.7474e-06,1,-0.071339,-0.99745,-6.8388e-07,-0.0022131,0.0020357,0.00066172,0.00061088,2.9611e-08,-3.8717e-07,0.0025283,0.0004843,-4.716e-06,-3.043e-09,-0.002235,0.00066172,0.0020576,0.99745,-0.071338,6.7024e-05,-6.6902e-05,4.097e-06,1,-0.071338,-0.99745,-6.8612e-07,-0.00038646,0.00048795,0.00038281,8.5519e-09,-1.1747e-07,0.00012572,-0.0018267,0.0015478,0.00027891,2.1059e-08,-2.697e-07,0.00048517,1,1,21.66,1711.7,0,3000
6.269e-14,6.269e-14,1.0276,105.15,92.634,7.4855,0.0005092,-0.0069944,0.12552,99.316,0,0,0,198.82,9888.2,4819.5,0.49226,92.634,105.69,0.99745,-0.071339,7.611e-05,-7.5964e-05,4.7474e-06,1,-0.071339,-0.99745,-6.8388e-07,-0.0022131,0.0020357,0.00066172,0.00061088,2.9611e-08,-3.8717e-07,0.0025283,0.0004843,-4.716e-06,-3.043e-09,-0.002235,0.00066172,0.0020576,0.99745,-0.071338,6.7024e-05,-6.6902e-05,4.097e-06,1,-0.071338,-0.99745,-6.8612e-07,-0.00038646,0.00048795,0.00038281,8.5519e-09,-1.1747e-07,0.00012572,-0.0018267,0.0015478,0.00027891,2.1059e-08,-2.697e-07,0.00048517,1,1,21.72,1711.7,0,3000
5.8769e-14,5.8769e-14,1.0276,105.15,92.634,7.4855,0.0005092,-0.0069944,0.12552,99.316,0,0,0,198.82,9888.2,4819.5,0.49226,92.634,105.69,0.99745,-0.071339,7.611e-05,-7.5964e-05,4.7474e-06,1,-0.071339,-0.99745,-6.8388e-07,-0.0022131,0.0020357,0.00066172,0.00061088,2.9611e-08,-3.8717e-07,0.0025283,0.0004843,-4.716e-06,-3.043e-09,-0.002235,0.00066172,0.0020576,0.99745,-0.071338,6.7024e-05,-6.6902e-05,4.097e-06,1,-0.071338,-0.99745,-6.8612e-07,-0.00038646,0.00048795,0.00038281,8.5519e-09,-1.1747e-07,0.00012572,-0.0018267,0.0015478,0.00027891,2.1059e-08,-2.697e-07,0.00048517,1,1,21.78,1711.8,0,3000
5.4856e-14,5.4856e-14,1.0276,105.15,92.634,7.4855,0.0005092,-0.0069944,0.12552,99.316,0,0,0,198.82,9888.2,4819.5,0.49226,92.634,105.69,0.99745,-0.071339,7.611e-05,-7.5964e-05,4.7474e-06,1,-0.071339,-0.99745,-6.8388e-07,-0.0022131,0.0020357,0.00066172,0.00061088,2.9611e-08,-3.8717e-07,0.0025283,0.0004843,-4.716e-06,-3.043e-09,-0.002235,0.00066172,0.0020576,0.99745,-0.071338,6.7024e-05,-6.6902e-05,4.097e-06,1,-0.071338,-0.99745,-6.8612e-07,-0.00038646,0.00048795,0.00038281,8.5519e-09,-1.1747e-07,0.00012572,-0.0018267,0.0015478,0.00027891,2.1059e-08,-2.697e-07,0.00048517,1,1,21.84,1711.8,0,3000
5.0935e-14,5.0935e-14,1.0276,105.15,92.634,7.4855,0.0005092,-0.0069944,0.12552,99.316,0,0,0,198.82,9888.2,4819.5,0.49226,92.634,105.69,0.99745,-0.071339,7.611e-05,-7.5964e-05,4.7474e-06,1,-0.071339,-0.99745,-6.8388e-07,-0.0022131,0.0020357,0.00066172,0.00061088,2.9611e-08,-3.8717e-07,0.0025283,0.0004843,-4.716e-06,-3.043e-09,-0.002235,0.00066172,0.0020576,0.99745,-0.071338,6.7024e-05,-6.6902e-05,4.097e-06,1,-0.071338,-0.99745,-6.8612e-07,-0.00038646,0.00048795,0.00038281,8.5519e-09,-1.1747e-07,0.00012572,-0.0018267,0.0015478,0.00027891,2.1059e-08,-2.697e-07,0.00048517,1,1,21.9,1711.9,0,3000
4.7023e-14,4.7023e-14,1.0276,105.15,92.634,7.4855,0.0005092,-0.0069944,0.12552,99.316,0,0,0,198.82,9888.2,4819.5,0.49226,92.634,105.69,0.99745,-0.071339,7.611e-05,-7.5964e-05,4.7474e-06,1,-0.071339,-0.99745,-6.8388e-07,-0.0022131,0.0020357,0.00066172,0.00061088,2.9611e-08,-3.8717e-07,0.0025283,0.0004843,-4.716e-06,-3.043e-09,-0.002235,0.00066172,0.0020576,0.99745,-0.071338,6.7024e-05,-6.6902e-05,4.097e-06,1,-0.071338,-0.99745,-6.8612e-07,-0.00038646,0.00048795,0.00038281,8.5519e-09,-1.1747e-07,0.00012572,-0.0018267,0.0015478,0.00027891,2.1059e-08,-2.697e-07,0.00048517,1,1,21.96,1712,0,3000
4.2951e-14,4.2951e-14,1.0476,98.572,86.2,7.0109,0.00049626,-0.0068223,0.11963,92.763,0,0,0,185.82,8641.3,4664.2,0.54616,86.2,99.074,0.99745,-0.071338,7.9861e-05,-7.9703e-05,5.054e-06,1,-0.071338,-0.99745,-6.4474e-07,-0.0022421,0.0020331,0.00066164,0.00061466,2.7831e-08,-3.6439e-07,0.0025454,0.00045264,-4.7909e-06,-3.0784e-09,-0.002264,0.00066164,0.002055,0.99745,-0.071338,6.2455e-05,-6.2341e-05,3.8236e-06,1,-0.071338,-0.99745,-6.3341e-07,-0.00036046,0.0004585,0.0003546,8.3346e-09,-1.1458e-07,0.00011775,-0.0018816,0.0015746,0.00030704,1.9496e-08,-2.4981e-07,0.00049691,1,1,22.02,1712,0,3000
3.8586e-14,3.8586e-14,1.0476,98.572,86.2,7.0109,0.00049626,-0.0068223,0.11963,92.763,0,0,0,185.82,8641.3,4664.2,0.54616,86.2,99.074,0.99745,-0.071338,7.9861e-05,-7.9703e-05,5.054e-06,1,-0.071338,-0.99745,-6.4474e-07,-0.0022421,0.0020331,0.00066164,0.00061466,2.7831e-08,-3.6439e-07,0.0025454,0.00045264,-4.7909e-06,-3.0784e-09,-0.002264,0.00066164,0.002055,0.99745,-0.071338,6.2455e-05,-6.2341e-05,3.8236e-06,1,-0.071338,-0.99745,-6.3341e-07,-0.00036046,0.0004585,0.0003546,8.3346e-09,-1.1458e-07,0.00011775,-0.0018816,0.0015746,0.00030704,1.9496e-08,-2.4981e-07,0.00049691,1,1,22.08,1712.1,0,3000
3.4212e-14,3.4212e-14,1.0476,98.572,86.2,7.0109,0.00049626,-0.0068223,0.11963,92.763,0,0,0,185.82,8641.3,4664.2,0.54616,86.2,99.074,0.99745,-0.071338,7.9861e-05,-7.9703e-05,5.054e-06,1,-0.071338,-0.99745,-6.4474e-07,-0.0022421,0.0020331,0.00066164,0.00061466,2.7831e-08,-3.6439e-07,0.0025454,0.00045264,-4.7909e-06,-3.0784e-09,-0.002264,0.00066164,0.002055,0.99745,-0.071338,6.2455e-05,-6.2341e-05,3.8236e-06,1,-0.071338,-0.99745,-6.3341e-07,-0.00036046,0.0004585,0.0003546,8.3346e-09,-1.1458e-07,0.00011775,-0.0018816,0.0015746,0.00030704,1.9496e-08,-2.4981e-07,0.00049691,1,1,22.14,1712.1,0,3000
2.9846e-14,2.9846e-14,1.0476,98.572,86.2,7.0109,0.00049626,-0.0068223,0.11963,92.763,0,0,0,185.82,8641.3,4664.2,0.54616,86.2,99.074,0.99745,-0.071338,7.9861e-05,-7.9703e-05,5.054e-06,1,-0.071338,-0.99745,-6.4474e-07,-0.0022421,0.0020331,0.00066164,0.00061466,2.7831e-08,-3.6439e-07,0.0025454,0.00045264,-4.7909e-06,-3.0784e-09,-0.002264,0.00066164,0.002055,0.99745,-0.071338,6.2455e-05,-6.2341e-05,3.8236e-06,1,-0.071338,-0.99745,-6.3341e-07,-0.00036046,0.0004585,0.0003546,8.3346e-09,-1.1458e-07,0.00011775,-0.0018816,0.0015746,0.00030704,1.9496e-08,-2.4981e-07,0.00049691,1,1,22.2,1712.2,0,3000
2.5472e-14,2.5472e-14,1.0476,98.572,86.2,7.0109,0.00049626,-0.0068223,0.11963,92.763,0,0,0,185.82,8641.3,4664.2,0.54616,86.2,99.074,0.99745,-0.071338,7.9861e-05,-7.9703e-05,5.054e-06,1,-0.071338,-0.99745,-6.4474e-07,-0.0022421,0.0020331,0.00066164,0.00061466,2.7831e-08,-3.6439e-07,0.0025454,0.00045264,-4.7909e-06,-3.0784e-09,-0.002264,0.00066164,0.002055,0.99745,-0.071338,6.2455e-05,-6.2341e-05,3.8236e-06,1,-0.071338,-0.99745,-6.3341e-07,-0.00036046,0.0004585,0.0003546,8.3346e-09,-1.1458e-07,0.00011775,-0.0018816,0.0015746,0.00030704,1.9496e-08,-2.4981e-07,0.00049691,1,1,22.26,1712.3,0,3000
2.1107e-14,2.1107e-14,1.0476,98.572,86.2,7.0109,0.00049626,-0.0068223,0.11963,92.763,0,0,0,185.82,8641.3,4664.2,0.54616,86.2,99.074,0.99745,-0.071338,7.9861e-05,-7.9703e-05,5.054e-06,1,-0.071338,-0.99745,-6.4474e-07,-0.0022421,0.0020331,0.00066164,0.00061466,2.7831e-08,-3.6439e-07,0.0025454,0.00045264,-4.7909e-06,-3.0784e-09,-0.002264,0.00066164,0.002055,0.99745,-0.071338,6.2455e-05,-6.2341e-05,3.8236e-06,1,-0.071338,-0.99745,-6.3341e-07,-0.00036046,0.0004585,0.0003546,8.3346e-09,-1.1458e-07,0.00011775,-0.0018816,0.0015746,0.00030704,1.9496e-08,-2.4981e-07,0.00049691,1,1,22.32,1712.3,0,3000
1.6733e-14,1.6733e-14,1.0476,98.572,86.2,7.0109,0.00049626,-0.0068223,0.11963,92.763,0,0,0,185.82,8641.3,4664.2,0.54616,86.2,99.074,0.99745,-0.071338,7.9861e-05,-7.9703e-05,5.054e-06,1,-0.071338,-0.99745,-6.4474e-07,-0.0022421,0.0020331,0.00066164,0.00061466,2.7831e-08,-3.6439e-07,0.0025454,0.00045264,-4.7909e-06,-3.0784e-09,-0.002264,0.00066164,0.002055,0.99745,-0.071338,6.2455e-05,-6.2341e-05,3.8236e-06,1,-0.071338,-0.99745,-6.3341e-07,-0.00036046,0.0004585,0.0003546,8.3346e-09,-1.1458e-07,0.00011775,-0.0018816,0.0015746,0.00030704,1.9496e-08,-2.4981e-07,0.00049691,1,1,22.38,1712.4,0,3000
1.2368e-14,1.2368e-14,1.0476,98.572,86.2,7.0109,0.00049626,-0.0068223,0.11963,92.763,0,0,0,185.82,8641.3,4664.2,0.54616,86.2,99.074,0.99745,-0.071338,7.9861e-05,-7.9703e-05,5.054e-06,1,-0.071338,-0.99745,-6.4474e-07,-0.0022421,0.0020331,0.00066164,0.00061466,2.7831e-08,-3.6439e-07,0.0025454,0.00045264,-4.7909e-06,-3.0784e-09,-0.002264,0.00066164,0.002055,0.99745,-0.071338,6.2455e-05,-6.2341e-05,3.8236e-06,1,-0.071338,-0.99745,-6.3341e-07,-0.00036046,0.0004585,0.0003546,8.3346e-09,-1.1458e-07,0.00011775,-0.0018816,0.0015746,0.00030704,1.9496e-08,-2.4981e-07,0.00049691,1,1,22.44,1712.4,0,3000
7.9936e-15,7.9936e-15,1.0476,98.572,86.2,7.0109,0.00049626,-0.0068223,0.11963,92.763,0,0,0,185.82,8641.3,4664.2,0.54616,86.2,99.074,0.99745,-0.071338,7.9861e-05,-7.9703e-05,5.054e-06,1,-0.071338,-0.99745,-6.4474e-07,-0.0022421,0.0020331,0.00066164,0.00061466,2.7831e-08,-3.6439e-07,0.0025454,0.00045264,-4.7909e-06,-3.0784e-09,-0.002264,0.00066164,0.002055,0.99745,-0.071338,6.2455e-05,-6.2341e-05,3.8236e-06,1,-0.071338,-0.99745,-6.3341e-07,-0.00036046,0.0004585,0.0003546,8.3346e-09,-1.1458e-07,0.00011775,-0.0018816,0.0015746,0.00030704,1.9496e-08,-2.4981e-07,0.00049691,1,1,22.5,1712.5,0,3000
3.6195e-15,3.6195e-15,1.0476,98.572,86.2,7.0109,0.00049626,-0.0068223,0.11963,92.763,0,0,0,185.82,8641.3,4664.2,0.54616,86.2,99.074,0.99745,-0.071338,7.9861e-05,-7.9703e-05,5.054e-06,1,-0.071338,-0.99745,-6.4474e-07,-0.0022421,0.0020331,0.00066164,0.00061466,2.7831e-08,-3.6439e-07,0.0025454,0.00045264,-4.7909e-06,-3.0784e-09,-0.002264,0.00066164,0.002055,0.99745,-0.071338,6.2455e-05,-6.2341e-05,3.8236e-06,1,-0.071338,-0.99745,-6.3341e-07,-0.00036046,0.0004585,0.0003546,8.3346e-09,-1.1458e-07,0.00011775,-0.0018816,0.0015746,0.00030704,1.9496e-08,-2.4981e-07,0.00049691,1,1,22.56,1712.6,0,3000
-7.4571e-16,-7.4571e-16,1.0476,98.572,86.2,7.0109,0.00049626,-0.0068223,0.11963,92.763,0,0,0,185.82,8641.3,4664.2,0.54616,86.2,99.074,0.99745,-0.071338,7.9861e-05,-7.9703e-05,5.054e-06,1,-0.071338,-0.99745,-6.4474e-07,-0.0022421,0.0020331,0.00066164,0.00061466,2.7831e-08,-3.6439e-07,0.0025454,0.00045264,-4.7909e-06,-3.0784e-09,-0.002264,0.00066164,0.002055,0.99745,-0.071338,6.2455e-05,-6.2341e-05,3.8236e-06,1,-0.071338,-0.99745,-6.3341e-07,-0.00036046,0.0004585,0.0003546,8.3346e-09,-1.1458e-07,0.00011775,-0.0018816,0.0015746,0.00030704,1.9496e-08,-2.4981e-07,0.00049691,1,1,22.62,1712.6,0,3000
-5.1198e-15,-5.1198e-15,1.0476,98.572,86.2,7.0109,0.00049626,-0.0068223,0.11963,92.763,0,0,0,185.82,8641.3,4664.2,0.54616,86.2,99.074,0.99745,-0.071338,7.9861e-05,-7.9703e-05,5.054e-06,1,-0.071338,-0.99745,-6.4474e-07,-0.0022421,0.0020331,0.00066164,0.00061466,2.7831e-08,-3.6439e-07,0.0025454,0.00045264,-4.7909e-06,-3.0784e-09,-0.002264,0.00066164,0.002055,0.99745,-0.071338,6.2455e-05,-6.2341e-05,3.8236e-06,1,-0.071338,-0.99745,-6.3341e-07,-0.00036046,0.0004585,0.0003546,8.3346e-09,-1.1458e-07,0.00011775,-0.0018816,0.0015746,0.00030704,1.9496e-08,-2.4981e-07,0.00049691,1,1,22.68,1712.7,0,3000
-9.485e-15,-9.485e-15,1.0476,98.572,86.2,7.0109,0.00049626,-0.0068223,0.11963,92.763,0,0,0,185.82,8641.3,4664.2,0.54616,86.2,99.074,0.99745,-0.071338,7.9861e-05,-7.9703e-05,5.054e-06,1,-0.071338,-0.99745,-6.4474e-07,-0.0022421,0.0020331,0.00066164,0.00061466,2.7831e-08,-3.6439e-07,0.0025454,0.00045264,-4.7909e-06,-3.0784e-09,-0.002264,0.00066164,0.002055,0.99745,-0.071338,6.2455e-05,-6.2341e-05,3.8236e-06,1,-0.071338,-0.99745,-6.3341e-07,-0.00036046,0.0004585,0.0003546,8.3346e-09,-1.1458e-07,0.00011775,-0.0018816,0.0015746,0.00030704,1.9496e-08,-2.4981e-07,0.00049691,1,1,22.74,1712.7,0,3000
-1.3859e-14,-1.3859e-14,1.0476,98.572,86.2,7.0109,0.00049626,-0.0068223,0.11963,92.763,0,0,0,185.82,8641.3,4664.2,0.54616,86.2,99.074,0.99745,-0.071338,7.9861e-05,-7.9703e-05,5.054e-06,1,-0.071338,-0.99745,-6.4474e-07,-0.0022421,0.0020331,0.00066164,0.00061466,2.7831e-08,-3.6439e-07,0.0025454,0.00045264,-4.7909e-06,-3.0784e-09,-0.002264,0.00066164,0.002055,0.99745,-0.071338,6.2455e-05,-6.2341e-05,3.8236e-06,1,-0.071338,-0.99745,-6.3341e-07,-0.00036046,0.0004585,0.0003546,8.3346e-09,-1.1458e-07,0.00011775,-0.0018816,0.0015746,0.00030704,1.9496e-08,-2.4981e-07,0.00049691,1,1,22.8,1712.8,0,3000
-1.8224e-14,-1.8224e-14,1.0476,98.572,86.2,7.0109,0.00049626,-0.0068223,0.11963,92.763,0,0,0,185.82,8641.3,4664.2,0.54616,86.2,99.074,0.99745,-0.071338,7.9861e-05,-7.9703e-05,5.054e-06,1,-0.071338,-0.99745,-6.4474e-07,-0.0022421,0.0020331,0.00066164,0.00061466,2.7831e-08,-3.6439e-07,0.0025454,0.00045264,-4.7909e-06,-3.0784e-09,-0.002264,0.00066164,0.002055,0.99745,-0.071338,6.2455e-05,-6.2341e-05,3.8236e-06,1,-0.071338,-0.99745,-6.3341e-07,-0.00036046,0.0004585,0.0003546,8.3346e-09,-1.1458e-07,0.00011775,-0.0018816,0.0015746,0.00030704,1.9496e-08,-2.4981e-07,0.00049691,1,1,22.86,1712.9,0,3000
-2.2598e-14,-2.2598e-14,1.0476,98.572,86.2,7.0109,0.00049626,-0.0068223,0.11963,92.763,0,0,0,185.82,8641.3,4664.2,0.54616,86.2,99.074,0.99745,-0.071338,7.9861e-05,-7.9703e-05,5.054e-06,1,-0.071338,-0.99745,-6.4474e-07,-0.0022421,0.0020331,0.00066164,0.00061466,2.7831e-08,-3.6439e-07,0.0025454,0.00045264,-4.7909e-06,-3.0784e-09,-0.002264,0.00066164,0.002055,0.99745,-0.071338,6.2455e-05,-6.2341e-05,3.8236e-06,1,-0.071338,-0.99745,-6.3341e-07,-0.00036046,0.0004585,0.0003546,8.3346e-09,-1.1458e-07,0.00011775,-0.0018816,0.0015746,0.00030704,1.9496e-08,-2.4981e-07,0.00049691,1,1,22.92,1712.9,0,3000
-2.6964e-14,-2.6964e-14,1.0476,98.572,86.2,7.0109,0.00049626,-0.0068223,0.11963,92.763,0,0,0,185.82,8641.3,4664.2,0.54616,86.2,99.074,0.99745,-0.071338,7.9861e-05,-7.9703e-05,5.054e-06,1,-0.071338,-0.99745,-6.4474e-07,-0.0022421,0.0020331,0.00066164,0.00061466,2.7831e-08,-3.6439e-07,0.0025454,0.00045264,-4.7909e-06,-3.0784e-09,-0.002264,0.00066164,0.002055,0.99745,-0.071338,6.2455e-05,-6.2341e-05,3.8236e-06,1,-0.071338,-0.99745,-6.3341e-07,-0.00036046,0.0004585,0.0003546,8.3346e-09,-1.1458e-07,0.00011775,-0.0018816,0.0015746,0.00030704,1.9496e-08,-2.4981e-07,0.00049691,1,1,22.98,1713,0,3000
-2.9933e-14,-2.9933e-14,1.0634,91.951,79.678,6.5338,0.00048358,-0.0066521,0.11493,86.162,0,0,0,172.69,7466.3,4389.4,0.59609,79.678,92.419,0.99745,-0.071338,8.4338e-05,-8.4166e-05,5.4057e-06,1,-0.071338,-0.99745,-6.1237e-07,-0.0022713,0.0020304,0.00066156,0.00061847,2.6058e-08,-3.4174e-07,0.0025627,0.00042066,-4.8665e-06,-3.114e-09,-0.0022934,0.00066156,0.0020525,0.99745,-0.071338,5.7992e-05,-5.7886e-05,3.5586e-06,1,-0.071338,-0.99745,-5.7991e-07,-0.00033424,0.00042898,0.00032592,8.1217e-09,-1.1172e-07,0.00010973,-0.001937,0.0016014,0.00033563,1.7937e-08,-2.3002e-07,0.00050874,1,1,23.04,1713,0,3000
-3.2196e-14,-3.2196e-14,1.0634,91.951,79.678,6.5338,0.00048358,-0.0066521,0.11493,86.162,0,0,0,172.69,7466.3,4389.4,0.59609,79.678,92.419,0.99745,-0.071338,8.4338e-05,-8.4166e-05,5.4057e-06,1,-0.071338,-0.99745,-6.1237e-07,-0.0022713,0.0020304,0.00066156,0.00061847,2.6058e-08,-3.4174e-07,0.0025627,0.00042066,-4.8665e-06,-3.114e-09,-0.0022934,0.00066156,0.0020525,0.99745,-0.071338,5.7992e-05,-5.7886e-05,3.5586e-06,1,-0.071338,-0.99745,-5.7991e-07,-0.00033424,0.00042898,0.00032592,8.1217e-09,-1.1172e-07,0.00010973,-0.001937,0.0016014,0.00033563,1.7937e-08,-2.3002e-07,0.00050874,1,1,23.1,1713.1,0,3000
-3.4463e-14,-3.4463e-14,1.0634,91.951,79.678,6.5338,0.00048358,-0.0066521,0.11493,86.162,0,0,0,172.69,7466.3,4389.4,0.59609,79.678,92.419,0.99745,-0.071338,8.4338e-05,-8.4166e-05,5.4057e-06,1,-0.071338,-0.99745,-6.1237e-07,-0.0022713,0.0020304,0.00066156,0.00061847,2.6058e-08,-3.4174e-07,0.0025627,0.00042066,-4.8665e-06,-3.114e-09,-0.0022934,0.00066156,0.0020525,0.99745,-0.071338,5.7992e-05,-5.7886e-05,3.5586e-06,1,-0.071338,-0.99745,-5.7991e-07,-0.00033424,0.00042898,0.00032592,8.1217e-09,-1.1172e-07,0.00010973,-0.001937,0.0016014,0.00033563,1.7937e-08,-2.3002e-07,0.00050874,1,1,23.16,1713.2,0,3000
-3.6725e-14,-3.6725e-14,1.0634,91.951,79.678,6.5338,0.00048358,-0.0066521,0.11493,86.162,0,0,0,172.69,7466.3,4389.4,0.59609,79.678,92.419,0.99745,-0.071338,8.4338e-05,-8.4166e-05,5.4057e-06,1,-0.071338,-0.99745,-6.1237e-07,-0.0022713,0.0020304,0.00066156,0.00061847,2.6058e-08,-3.4174e-07,0.0025627,0.00042066,-4.8665e-06,-3.114e-09,-0.0022934,0.00066156,0.0020525,0.99745,-0.071338,5.7992e-05,-5.7886e-05,3.5586e-06,1,-0.071338,-0.99745,-5.7991e-07,-0.00033424,0.00042898,0.00032592,8.1217e-09,-1.1172e-07,0.00010973,-0.001937,0.0016014,0.00033563,1.7937e-08,-2.3002e-07,0.00050874,1,1,23.22,1713.2,0,3000
-3.8992e-14,-3.8992e-14,1.0634,91.951,79.678,6.5338,0.00048358,-0.0066521,0.11493,86.162,0,0,0,172.69,7466.3,4389.4,0.59609,79.678,92.419,0.99745,-0.071338,8.4338e-05,-8.4166e-05,5.4057e-06,1,-0.071338,-0.99745,-6.1237e-07,-0.0022713,0.0020304,0.00066156,0.00061847,2.6058e-08,-3.4174e-07,0.0025627,0.00042066,-4.8665e-06,-3.114e-09,-0.0022934,0.00066156,0.0020525,0.99745,-0.071338,5.7992e-05,-5.7886e-05,3.5586e-06,1,-0.071338,-0.99745,-5.7991e-07,-0.00033424,0.00042898,0.00032592,8.1217e-09,-1.1172e-07,0.00010973,-0.001937,0.0016014,0.00033563,1.7937e-08,-2.3002e-07,0.00050874,1,1,23.28,1713.3,0,3000
-4.1255e-14,-4.1255e-14,1.0634,91.951,79.678,6.5338,0.00048358,-0.0066521,0.11493,86.162,0,0,0,172.69,7466.3,4389.4,0.59609,79.678,92.419,0.99745,-0.071338,8.4338e-05,-8.4166e-05,5.4057e-06,1,-0.071338,-0.99745,-6.1237e-07,-0.0022713,0.0020304,0.00066156,0.00061847,2.6058e-08,-3.4174e-07,0.0025627,0.00042066,-4.8665e-06,-3.114e-09,-0.0022934,0.00066156,0.0020525,0.99745,-0.071338,5.7992e-05,-5.7886e-05,3.5586e-06,1,-0.071338,-0.99745,-5.7991e-07,-0.00033424,0.00042898,0.00032592,8.1217e-09,-1.1172e-07,0.00010973,-0.001937,0.0016014,0.00033563,1.7937e-08,-2.3002e-07,0.00050874,1,1,23.34,1713.3,0,3000
-4.3522e-14,-4.3522e-14,1.0634,91.951,79.678,6.5338,0.00048358,-0.0066521,0.11493,86.162,0,0,0,172.69,7466.3,4389.4,0.59609,79.678,92.419,0.99745,-0.071338,8.4338e-05,-8.4166e-05,5.4057e-06,1,-0.071338,-0.99745,-6.1237e-07,-0.0022713,0.0020304,0.00066156,0.00061847,2.6058e-08,-3.4174e-07,0.0025627,0.00042066,-4.8665e-06,-3.114e-09,-0.0022934,0.00066156,0.0020525,0.99745,-0.071338,5.7992e-05,-5.7886e-05,3.5586e-06,1,-0.071338,-0.99745,-5.7991e-07,-0.00033424,0.00042898,0.00032592,8.1217e-09,-1.1172e-07,0.00010973,-0.001937,0.0016014,0.00033563,1.7937e-08,-2.3002e-07,0.00050874,1,1,23.4,1713.4,0,3000
-4.5784e-14,-4.5784e-14,1.0634,91.951,79.678,6.5338,0.00048358,-0.0066521,0.11493,86.162,0,0,0,172.69,7466.3,4389.4,0.59609,79.678,92.419,0.99745,-0.071338,8.4338e-05,-8.4166e-05,5.4057e-06,1,-0.071338,-0.99745,-6.1237e-07,-0.0022713,0.0020304,0.00066156,0.00061847,2.6058e-08,-3.4174e-07,0.0025627,0.00042066,-4.8665e-06,-3.114e-09,-0.0022934,0.00066156,0.0020525,0.99745,-0.071338,5.7992e-05,-5.7886e-05,3.5586e-06,1,-0.071338,-0.99745,-5.7991e-07,-0.00033424,0.00042898,0.00032592,8.1217e-09,-1.1172e-07,0.00010973,-0.001937,0.0016014,0.00033563,1.7937e-08,-2.3002e-07,0.00050874,1,1,23.46,1713.5,0,3000
-4.8051e-14,-4.8051e-14,1.0634,91.951,79.678,6.5338,0.00048358,-0.0066521,0.11493,86.162,0,0,0,172.69,7466.3,4389.4,0.59609,79.678,92.419,0.99745,-0.071338,8.4338e-05,-8.4166e-05,5.4057e-06,1,-0.071338,-0.99745,-6.1237e-07,-0.0022713,0.0020304,0.00066156,0.00061847,2.6058e-08,-3.4174e-07,0.0025627,0.00042066,-4.8665e-06,-3.114e-09,-0.0022934,0.00066156,0.0020525,0.99745,-0.071338,5.7992e-05,-5.7886e-05,3.5586e-06,1,-0.071338,-0.99745,-5.7991e-07,-0.00033424,0.00042898,0.00032592,8.1217e-09,-1.1172e-07,0.00010973,-0.001937,0.0016014,0.00033563,1.7937e-08,-2.3002e-07,0.00050874,1,1,23.52,1713.5,0,3000
-5.0314e-14,-5.0314e-14,1.0634,91.951,79.678,6.5338,0.00048358,-0.0066521,0.11493,86.162,0,0,0,172.69,7466.3,4389.4,0.59609,79.678,92.419,0.99745,-0.071338,8.4338e-05,-8.4166e-05,5.4057e-06,1,-0.071338,-0.99745,-6.1237e-07,-0.0022713,0.0020304,0.00066156,0.00061847,2.6058e-08,-3.4174e-07,0.0025627,0.00042066,-4.8665e-06,-3.114e-09,-0.0022934,0.00066156,0.0020525,0.99745,-0.071338,5.7992e-05,-5.7886e-05,3.5586e-06,1,-0.071338,-0.99745,-5.7991e-07,-0.00033424,0.00042898,0.00032592,8.1217e-09,-1.1172e-07,0.00010973,-0.001937,0.0016014,0.00033563,1.7937e-08,-2.3002e-07,0.00050874,1,1,23.58,1713.6,0,3000
-5.2581e-14,-5.2581e-14,1.0634,91.951,79.678,6.5338,0.00048358,-0.0066521,0.11493,86.162,0,0,0,172.69,7466.3,4389.4,0.59609,79.678,92.419,0.99745,-0.071338,8.4338e-05,-8.4166e-05,5.4057e-06,1,-0.071338,-0.99745,-6.1237e-07,-0.0022713,0.0020304,0.00066156,0.00061847,2.6058e-08,-3.4174e-07,0.0025627,0.00042066,-4.8665e-06,-3.114e-09,-0.0022934,0.00066156,0.0020525,0.99745,-0.071338,5.7992e-05,-5.7886e-05,3.5586e-06,1,-0.071338,-0.99745,-5.7991e-07,-0.00033424,0.00042898,0.00032592,8.1217e-09,-1.1172e-07,0.00010973,-0.001937,0.0016014,0.00033563,1.7937e-08,-2.3002e-07,0.00050874,1,1,23.64,1713.6,0,3000
-5.4843e-14,-5.4843e-14,1.0634,91.951,79.678,6.5338,0.00048358,-0.0066521,0.11493,86.162,0,0,0,172.69,7466.3,4389.4,0.59609,79.678,92.419,0.99745,-0.071338,8.4338e-05,-8.4166e-05,5.4057e-06,1,-0.071338,-0.99745,-6.1237e-07,-0.0022713,0.0020304,0.00066156,0.00061847,2.6058e-08,-3.4174e-07,0.0025627,0.00042066,-4.8665e-06,-3.114e-09,-0.0022934,0.00066156,0.0020525,0.99745,-0.071338,5.7992e-05,-5.7886e-05,3.5586e-06,1,-0.071338,-0.99745,-5.7991e-07,-0.00033424,0.00042898,0.00032592,8.1217e-09,-1.1172e-07,0.00010973,-0.001937,0.0016014,0.00033563,1.7937e-08,-2.3002e-07,0.00050874,1,1,23.7,1713.7,0,3000
-5.711e-14,-5.711e-14,1.0634,91.951,79.678,6.5338,0.00048358,-0.0066521,0.11493,86.162,0,0,0,172.69,7466.3,4389.4,0.59609,79.678,92.419,0.99745,-0.071338,8.4338e-05,-8.4166e-05,5.4057e-06,1,-0.071338,-0.99745,-6.1237e-07,-0.0022713,0.0020304,0.00066156,0.00061847,2.6058e-08,-3.4174e-07,0.0025627,0.00042066,-4.8665e-06,-3.114e-09,-0.0022934,0.00066156,0.0020525,0.99745,-0.071338,5.7992e-05,-5.7886e-05,3.5586e-06,1,-0.071338,-0.99745,-5.7991e-07,-0.00033424,0.00042898,0.00032592,8.1217e-09,-1.1172e-07,0.00010973,-0.001937,0.0016014,0.00033563,1.7937e-08,-2.3002e-07,0.00050874,1,1,23.76,1713.8,0,3000
-5.9373e-14,-5.9373e-14,1.0634,91.951,79.678,6.5338,0.00048358,-0.0066521,0.11493,86.162,0,0,0,172.69,7466.3,4389.4,0.59609,79.678,92.419,0.99745,-0.071338,8.4338e-05,-8.4166e-05,5.4057e-06,1,-0.071338,-0.99745,-6.1237e-07,-0.0022713,0.0020304,0.00066156,0.00061847,2.6058e-08,-3.4174e-07,0.0025627,0.00042066,-4.8665e-06,-3.114e-09,-0.0022934,0.00066156,0.0020525,0.99745,-0.071338,5.7992e-05,-5.7886e-05,3.5586e-06,1,-0.071338,-0.99745,-5.7991e-07,-0.00033424,0.00042898,0.00032592,8.1217e-09,-1.1172e-07,0.00010973,-0.001937,0.0016014,0.00033563,1.7937e-08,-2.3002e-07,0.00050874,1,1,23.82,1713.8,0,3000
-6.164e-14,-6.164e-14,1.0634,91.951,79.678,6.5338,0.00048358,-0.0066521,0.11493,86.162,0,0,0,172.69,7466.3,4389.4,0.59609,79.678,92.419,0.99745,-0.071338,8.4338e-05,-8.4166e-05,5.4057e-06,1,-0.071338,-0.99745,-6.1237e-07,-0.0022713,0.0020304,0.00066156,0.00061847,2.6058e-08,-3.4174e-07,0.0025627,0.00042066,-4.8665e-06,-3.114e-09,-0.0022934,0.00066156,0.0020525,0.99745,-0.071338,5.7992e-05,-5.7886e-05,3.5586e-06,1,-0.071338,-0.99745,-5.7991e-07,-0.00033424,0.00042898,0.00032592,8.1217e-09,-1.1172e-07,0.00010973,-0.001937,0.0016014,0.00033563,1.7937e-08,-2.3002e-07,0.00050874,1,1,23.88,1713.9,0,3000
-6.3902e-14,-6.3902e-14,1.0634,91.951,79.678,6.5338,0.00048358,-0.0066521,0.11493,86.162,0,0,0,172.69,7466.3,4389.4,0.59609,79.678,92.419,0.99745,-0.071338,8.4338e-05,-8.4166e-05,5.4057e-06,1,-0.071338,-0.99745,-6.1237e-07,-0.0022713,0.0020304,0.00066156,0.00061847,2.6058e-08,-3.4174e-07,0.0025627,0.00042066,-4.8665e-06,-3.114e-09,-0.0022934,0.00066156,0.0020525,0.99745,-0.071338,5.7992e-05,-5.7886e-05,3.5586e-06,1,-0.071338,-0.99745,-5.7991e-07,-0.00033424,0.00042898,0.00032592,8.1217e-09,-1.1172e-07,0.00010973,-0.001937,0.0016014,0.00033563,1.7937e-08,-2.3002e-07,0.00050874,1,1,23.94,1713.9,0,3000
-6.6169e-14,-6.6169e-14,1.0751,85.302,73.093,6.0549,0.00047119,-0.0064845,0.11122,79.529,0,0,0,159.47,6368.6,4023.5,0.64206,73.093,85.735,0.99745,-0.071338,8.9738e-05,-8.9551e-05,5.818e-06,1,-0.071338,-0.99745,-5.8519e-07,-0.0023007,0.0020277,0.00066147,0.00062232,2.4309e-08,-3.1942e-07,0.0025801,0.00038845,-4.9425e-06,-3.1499e-09,-0.0023229,0.00066147,0.0020499,0.99745,-0.071338,5.3668e-05,-5.3569e-05,3.3041e-06,1,-0.071338,-0.99745,-5.2582e-07,-0.00030787,0.00039942,0.0002969,7.9136e-09,-1.0891e-07,0.00010169,-0.0019928,0.0016283,0.00036457,1.6395e-08,-2.1051e-07,0.00052062,1,1,24,1714,0,3000
-6.5289e-14,-6.5289e-14,1.0751,85.302,73.093,6.0549,0.00047119,-0.0064845,0.11122,79.529,0,0,0,159.47,6368.6,4023.5,0.64206,73.093,85.735,0.99745,-0.071338,8.9738e-05,-8.9551e-05,5.818e-06,1,-0.071338,-0.99745,-5.8519e-07,-0.0023007,0.0020277,0.00066147,0.00062232,2.4309e-08,-3.1942e-07,0.0025801,0.00038845,-4.9425e-06,-3.1499e-09,-0.0023229,0.00066147,0.0020499,0.99745,-0.071338,5.3668e-05,-5.3569e-05,3.3041e-06,1,-0.071338,-0.99745,-5.2582e-07,-0.00030787,0.00039942,0.0002969,7.9136e-09,-1.0891e-07,0.00010169,-0.0019928,0.0016283,0.00036457,1.6395e-08,-2.1051e-07,0.00052062,1,1,24.06,1714.1,0,3000
-6.4411e-14,-6.4411e-14,1.0751,85.302,73.093,6.0549,0.00047119,-0.0064845,0.11122,79.529,0,0,0,159.47,6368.6,4023.5,0.64206,73.093,85.735,0.99745,-0.071338,8.9738e-05,-8.9551e-05,5.818e-06,1,-0.071338,-0.99745,-5.8519e-07,-0.0023007,0.0020277,0.00066147,0.00062232,2.4309e-08,-3.1942e-07,0.0025801,0.00038845,-4.9425e-06,-3.1499e-09,-0.0023229,0.00066147,0.0020499,0.99745,-0.071338,5.3668e-05,-5.3569e-05,3.3041e-06,1,-0.071338,-0.99745,-5.2582e-07,-0.00030787,0.00039942,0.0002969,7.9136e-09,-1.0891e-07,0.00010169,-0.0019928,0.0016283,0.00036457,1.6395e-08,-2.1051e-07,0.00052062,1,1,24.12,1714.1,0,3000
-6.3531e-14,-6.3531e-14,1.0751,85.302,73.093,6.0549,0.00047119,-0.0064845,0.11122,79.529,0,0,0,159.47,6368.6,4023.5,0.64206,73.093,85.735,0.99745,-0.071338,8.9738e-05,-8.9551e-05,5.818e-06,1,-0.071338,-0.99745,-5.8519e-07,-0.0023007,0.0020277,0.00066147,0.00062232,2.4309e-08,-3.1942e-07,0.0025801,0.00038845,-4.9425e-06,-3.1499e-09,-0.0023229,0.00066147,0.0020499,0.99745,-0.071338,5.3668e-05,-5.3569e-05,3.3041e-06,1,-0.071338,-0.99745,-5.2582e-07,-0.00030787,0.00039942,0.0002969,7.9136e-09,-1.0891e-07,0.00010169,-0.0019928,0.0016283,0.00036457,1.6395e-08,-2.1051e-07,0.00052062,1,1,24.18,1714.2,0,3000
-6.2652e-14,-6.2652e-14,1.0751,85.302,73.093,6.0549,0.00047119,-0.0064845,0.11122,79.529,0,0,0,159.47,6368.6,4023.5,0.64206,73.093,85.735,0.99745,-0.071338,8.9738e-05,-8.9551e-05,5.818e-06,1,-0.071338,-0.99745,-5.8519e-07,-0.0023007,0.0020277,0.00066147,0.00062232,2.4309e-08,-3.1942e-07,0.0025801,0.00038845,-4.9425e-06,-3.1499e-09,-0.0023229,0.00066147,0.0020499,0.99745,-0.071338,5.3668e-05,-5.3569e-05,3.3041e-06,1,-0.071338,-0.99745,-5.2582e-07,-0.00030787,0.00039942,0.0002969,7.9136e-09,-1.0891e-07,0.00010169,-0.0019928,0.0016283,0.00036457,1.6395e-08,-2.1051e-07,0.00052062,1,1,24.24,1714.2,0,3000
-6.1772e-14,-6.1772e-14,1.0751,85.302,73.093,6.0549,0.00047119,-0.0064845,0.11122,79.529,0,0,0,159.47,6368.6,4023.5,0.64206,73.093,85.735,0.99745,-0.071338,8.9738e-05,-8.9551e-05,5.818e-06,1,-0.071338,-0.99745,-5.8519e-07,-0.0023007,0.0020277,0.00066147,0.00062232,2.4309e-08,-3.1942e-07,0.0025801,0.00038845,-4.9425e-06,-3.1499e-09,-0.0023229,0.00066147,0.0020499,0.99745,-0.071338,5.3668e-05,-5.3569e-05,3.3041e-06,1,-0.071338,-0.99745,-5.2582e-07,-0.00030787,0.00039942,0.0002969,7.9136e-09,-1.0891e-07,0.00010169,-0.0019928,0.0016283,0.00036457,1.6395e-08,-2.1051e-07,0.00052062,1,1,24.3,1714.3,0,3000
-6.0894e-14,-6.0894e-14,1.0751,85.302,73.093,6.0549,0.00047119,-0.0064845,0.11122,79.529,0,0,0,159.47,6368.6,4023.5,0.64206,73.093,85.735,0.99745,-0.071338,8.9738e-05,-8.9551e-05,5.818e-06,1,-0.071338,-0.99745,-5.8519e-07,-0.0023007,0.0020277,0.00066147,0.00062232,2.4309e-08,-3.1942e-07,0.0025801,0.00038845,-4.9425e-06,-3.1499e-09,-0.0023229,0.00066147,0.0020499,0.99745,-0.071338,5.3668e-05,-5.3569e-05,3.3041e-06,1,-0.071338,-0.99745,-5.2582e-07,-0.00030787,0.00039942,0.0002969,7.9136e-09,-1.0891e-07,0.00010169,-0.0019928,0.0016283,0.00036457,1.6395e-08,-2.1051e-07,0.00052062,1,1,24.36,1714.4,0,3000
-6.0014e-14,-6.0014e-14,1.0751,85.302,73.093,6.0549,0.00047119,-0.0064845,0.11122,79.529,0,0,0,159.47,6368.6,4023.5,0.64206,73.093,85.735,0.99745,-0.071338,8.9738e-05,-8.9551e-05,5.818e-06,1,-0.071338,-0.99745,-5.8519e-07,-0.0023007,0.0020277,0.00066147,0.00062232,2.4309e-08,-3.1942e-07,0.0025801,0.00038845,-4.9425e-06,-3.1499e-09,-0.0023229,0.00066147,0.0020499,0.99745,-0.071338,5.3668e-05,-5.3569e-05,3.3041e-06,1,-0.071338,-0.99745,-5.2582e-07,-0.00030787,0.00039942,0.0002969,7.9136e-09,-1.0891e-07,0.00010169,-0.0019928,0.0016283,0.00036457,1.6395e-08,-2.1051e-07,0.00052062,1,1,24.42,1714.4,0,3000
-5.9135e-14,-5.9135e-14,1.0751,85.302,73.093,6.0549,0.00047119,-0.0064845,0.11122,79.529,0,0,0,159.47,6368.6,4023.5,0.64206,73.093,85.735,0.99745,-0.071338,8.9738e-05,-8.9551e-05,5.818e-06,1,-0.071338,-0.99745,-5.8519e-07,-0.0023007,0.0020277,0.00066147,0.00062232,2.4309e-08,-3.1942e-07,0.0025801,0.00038845,-4.9425e-06,-3.1499e-09,-0.0023229,0.00066147,0.0020499,0.99745,-0.071338,5.3668e-05,-5.3569e-05,3.3041e-06,1,-0.071338,-0.99745,-5.2582e-07,-0.00030787,0.00039942,0.0002969,7.9136e-09,-1.0891e-07,0.00010169,-0.0019928,0.0016283,0.00036457,1.6395e-08,-2.1051e-07,0.00052062,1,1,24.48,1714.5,0,3000
-5.8255e-14,-5.8255e-14,1.0751,85.302,73.093,6.0549,0.00047119,-0.0064845,0.11122,79.529,0,0,0,159.47,6368.6,4023.5,0.64206,73.093,85.735,0.99745,-0.071338,8.9738e-05,-8.9551e-05,5.818e-06,1,-0.071338,-0.99745,-5.8519e-07,-0.0023007,0.0020277,0.00066147,0.00062232,2.4309e-08,-3.1942e-07,0.0025801,0.00038845,-4.9425e-06,-3.1499e-09,-0.0023229,0.00066147,0.0020499,0.99745,-0.071338,5.3668e-05,-5.3569e-05,3.3041e-06,1,-0.071338,-0.99745,-5.2582e-07,-0.00030787,0.00039942,0.0002969,7.9136e-09,-1.0891e-07,0.00010169,-0.0019928,0.0016283,0.00036457,1.6395e-08,-2.1051e-07,0.00052062,1,1,24.54,1714.5,0,3000
-5.7377e-14,-5.7377e-14,1.0751,85.302,73.093,6.0549,0.00047119,-0.0064845,0.11122,79.529,0,0,0,159.47,6368.6,4023.5,0.64206,73.093,85.735,0.99745,-0.071338,8.9738e-05,-8.9551e-05,5.818e-06,1,-0.071338,-0.99745,-5.8519e-07,-0.0023007,0.0020277,0.00066147,0.00062232,2.4309e-08,-3.1942e-07,0.0025801,0.00038845,-4.9425e-06,-3.1499e-09,-0.0023229,0.00066147,0.0020499,0.99745,-0.071338,5.3668e-05,-5.3569e-05,3.3041e-06,1,-0.071338,-0.99745,-5.2582e-07,-0.00030787,0.00039942,0.0002969,7.9136e-09,-1.0891e-07,0.00010169,-0.0019928,0.0016283,0.00036457,1.6395e-08,-2.1051e-07,0.00052062,1,1,24.6,1714.6,0,3000
-5.6497e-14,-5.6497e-14,1.0751,85.302,73.093,6.0549,0.00047119,-0.0064845,0.11122,79.529,0,0,0,159.47,6368.6,4023.5,0.64206,73.093,85.735,0.99745,-0.071338,8.9738e-05,-8.9551e-05,5.818e-06,1,-0.071338,-0.99745,-5.8519e-07,-0.0023007,0.0020277,0.00066147,0.00062232,2.4309e-08,-3.1942e-07,0.0025801,0.00038845,-4.9425e-06,-3.1499e-09,-0.0023229,0.00066147,0.0020499,0.99745,-0.071338,5.3668e-05,-5.3569e-05,3.3041e-06,1,-0.071338,-0.99745,-5.2582e-07,-0.00030787,0.00039942,0.0002969,7.9136e-09,-1.0891e-07,0.00010169,-0.0019928,0.0016283,0.00036457,1.6395e-08,-2.1051e-07,0.00052062,1,1,24.66,1714.7,0,3000
-5.5618e-14,-5.5618e-14,1.0751,85.302,73.093,6.0549,0.00047119,-0.0064845,0.11122,79.529,0,0,0,159.47,6368.6,4023.5,0.64206,73.093,85.735,0.99745,-0.071338,8.9738e-05,-8.9551e-05,5.818e-06,1,-0.071338,-0.99745,-5.8519e-07,-0.0023007,0.0020277,0.00066147,0.00062232,2.4309e-08,-3.1942e-07,0.0025801,0.00038845,-4.9425e-06,-3.1499e-09,-0.0023229,0.00066147,0.0020499,0.99745,-0.071338,5.3668e-05,-5.3569e-05,3.3041e-06,1,-0.071338,-0.99745,-5.2582e-07,-0.00030787,0.00039942,0.0002969,7.9136e-09,-1.0891e-07,0.00010169,-0.0019928,0.0016283,0.00036457,1.6395e-08,-2.1051e-07,0.00052062,1,1,24.72,1714.7,0,3000
-5.4738e-14,-5.4738e-14,1.0751,85.302,73.093,6.0549,0.00047119,-0.0064845,0.11122,79.529,0,0,0,159.47,6368.6,4023.5,0.64206,73.093,85.735,0.99745,-0.071338,8.9738e-05,-8.9551e-05,5.818e-06,1,-0.071338,-0.99745,-5.8519e-07,-0.0023007,0.0020277,0.00066147,0.00062232,2.4309e-08,-3.1942e-07,0.0025801,0.00038845,-4.9425e-06,-3.1499e-09,-0.0023229,0.00066147,0.0020499,0.99745,-0.071338,5.3668e-05,-5.3569e-05,3.3041e-06,1,-0.071338,-0.99745,-5.2582e-07,-0.00030787,0.00039942,0.0002969,7.9136e-09,-1.0891e-07,0.00010169,-0.0019928,0.0016283,0.00036457,1.6395e-08,-2.1051e-07,0.00052062,1,1,24.78,1714.8,0,3000
-5.386e-14,-5.386e-14,1.0751,85.302,73.093,6.0549,0.00047119,-0.0064845,0.11122,79.529,0,0,0,159.47,6368.6,4023.5,0.64206,73.093,85.735,0.99745,-0.071338,8.9738e-05,-8.9551e-05,5.818e-06,1,-0.071338,-0.99745,-5.8519e-07,-0.0023007,0.0020277,0.00066147,0.00062232,2.4309e-08,-3.1942e-07,0.0025801,0.00038845,-4.9425e-06,-3.1499e-09,-0.0023229,0.00066147,0.0020499,0.99745,-0.071338,5.3668e-05,-5.3569e-05,3.3041e-06,1,-0.071338,-0.99745,-5.2582e-07,-0.00030787,0.00039942,0.0002969,7.9136e-09,-1.0891e-07,0.00010169,-0.0019928,0.0016283,0.00036457,1.6395e-08,-2.1051e-07,0.00052062,1,1,24.84,1714.8,0,3000
-5.2979e-14,-5.2979e-14,1.0751,85.302,73.093,6.0549,0.00047119,-0.0064845,0.11122,79.529,0,0,0,159.47,6368.6,4023.5,0.64206,73.093,85.735,0.99745,-0.071338,8.9738e-05,-8.9551e-05,5.818e-06,1,-0.071338,-0.99745,-5.8519e-07,-0.0023007,0.0020277,0.00066147,0.00062232,2.4309e-08,-3.1942e-07,0.0025801,0.00038845,-4.9425e-06,-3.1499e-09,-0.0023229,0.00066147,0.0020499,0.99745,-0.071338,5.3668e-05,-5.3569e-05,3.3041e-06,1,-0.071338,-0.99745,-5.2582e-07,-0.00030787,0.00039942,0.0002969,7.9136e-09,-1.0891e-07,0.00010169,-0.0019928,0.0016283,0.00036457,1.6395e-08,-2.1051e-07,0.00052062,1,1,24.9,1714.9,0,3000
-5.2101e-14,-5.2101e-14,1.0751,85.302,73.093,6.0549,0.00047119,-0.0064845,0.11122,79.529,0,0,0,159.47,6368.6,4023.5,0.64206,73.093,85.735,0.99745,-0.071338,8.9738e-05,-8.9551e-05,5.818e-06,1,-0.071338,-0.99745,-5.8519e-07,-0.0023007,0.0020277,0.00066147,0.00062232,2.4309e-08,-3.1942e-07,0.0025801,0.00038845,-4.9425e-06,-3.1499e-09,-0.0023229,0.00066147,0.0020499,0.99745,-0.071338,5.3668e-05,-5.3569e-05,3.3041e-06,1,-0.071338,-0.99745,-5.2582e-07,-0.00030787,0.00039942,0.0002969,7.9136e-09,-1.0891e-07,0.00010169,-0.0019928,0.0016283,0.00036457,1.6395e-08,-2.1051e-07,0.00052062,1,1,24.96,1715,0,3000
-4.834e-14,-4.834e-14,1.0828,78.632,66.461,5.5749,0.00045907,-0.0063199,0.10835,72.88,0,0,0,146.18,5352,3593,0.68406,66.461,79.031,0.99745,-0.071338,9.6334e-05,-9.6128e-05,6.3126e-06,1,-0.071338,-0.99745,-5.6105e-07,-0.0023303,0.002025,0.00066139,0.00062618,2.2596e-08,-2.9762e-07,0.0025977,0.00035607,-5.0187e-06,-3.1858e-09,-0.0023527,0.00066139,0.0020474,0.99745,-0.071338,4.9514e-05,-4.9421e-05,3.0621e-06,1,-0.071338,-0.99745,-4.7133e-07,-0.00028138,0.00036983,0.00026762,7.71e-09,-1.0614e-07,9.3629e-05,-0.0020489,0.0016551,0.00039377,1.4886e-08,-1.9148e-07,0.00053255,1,1,25.02,1715,0,3000
-3.8838e-14,-3.8838e-14,1.0828,78.632,66.461,5.5749,0.00045907,-0.0063199,0.10835,72.88,0,0,0,146.18,5352,3593,0.68406,66.461,79.031,0.99745,-0.071338,9.6334e-05,-9.6128e-05,6.3126e-06,1,-0.071338,-0.99745,-5.6105e-07,-0.0023303,0.002025,0.00066139,0.00062618,2.2596e-08,-2.9762e-07,0.0025977,0.00035607,-5.0187e-06,-3.1858e-09,-0.0023527,0.00066139,0.0020474,0.99745,-0.071338,4.9514e-05,-4.9421e-05,3.0621e-06,1,-0.071338,-0.99745,-4.7133e-07,-0.00028138,0.00036983,0.00026762,7.71e-09,-1.0614e-07,9.3629e-05,-0.0020489,0.0016551,0.00039377,1.4886e-08,-1.9148e-07,0.00053255,1,1,25.08,1715.1,0,3000
-2.9316e-14,-2.9316e-14,1.0828,78.632,66.461,5.5749,0.00045907,-0.0063199,0.10835,72.88,0,0,0,146.18,5352,3593,0.68406,66.461,79.031,0.99745,-0.071338,9.6334e-05,-9.6128e-05,6.3126e-06,1,-0.071338,-0.99745,-5.6105e-07,-0.0023303,0.002025,0.00066139,0.00062618,2.2596e-08,-2.9762e-07,0.0025977,0.00035607,-5.0187e-06,-3.1858e-09,-0.0023527,0.00066139,0.0020474,0.99745,-0.071338,4.9514e-05,-4.9421e-05,3.0621e-06,1,-0.071338,-0.99745,-4.7133e-07,-0.00028138,0.00036983,0.00026762,7.71e-09,-1.0614e-07,9.3629e-05,-0.0020489,0.0016551,0.00039377,1.4886e-08,-1.9148e-07,0.00053255,1,1,25.14,1715.1,0,3000
-1.9814e-14,-1.9814e-14,1.0828,78.632,66.461,5.5749,0.00045907,-0.0063199,0.10835,72.88,0,0,0,146.18,5352,3593,0.68406,66.461,79.031,0.99745,-0.071338,9.6334e-05,-9.6128e-05,6.3126e-06,1,-0.071338,-0.99745,-5.6105e-07,-0.0023303,0.002025,0.00066139,0.00062618,2.2596e-08,-2.9762e-07,0.0025977,0.00035607,-5.0187e-06,-3.1858e-09,-0.0023527,0.00066139,0.0020474,0.99745,-0.071338,4.9514e-05,-4.9421e-05,3.0621e-06,1,-0.071338,-0.99745,-4.7133e-07,-0.00028138,0.00036983,0.00026762,7.71e-09,-1.0614e-07,9.3629e-05,-0.0020489,0.0016551,0.00039377,1.4886e-08,-1.9148e-07,0.00053255,1,1,25.2,1715.2,0,3000
-1.0292e-14,-1.0292e-14,1.0828,78.632,66.461,5.5749,0.00045907,-0.0063199,0.10835,72.88,0,0,0,146.18,5352,3593,0.68406,66.461,79.031,0.99745,-0.071338,9.6334e-05,-9.6128e-05,6.3126e-06,1,-0.071338,-0.99745,-5.6105e-07,-0.0023303,0.002025,0.00066139,0.00062618,2.2596e-08,-2.9762e-07,0.0025977,0.00035607,-5.0187e-06,-3.1858e-09,-0.0023527,0.00066139,0.0020474,0.99745,-0.071338,4.9514e-05,-4.9421e-05,3.0621e-06,1,-0.071338,-0.99745,-4.7133e-07,-0.00028138,0.00036983,0.00026762,7.71e-09,-1.0614e-07,9.3629e-05,-0.0020489,0.0016551,0.00039377,1.4886e-08,-1.9148e-07,0.00053255,1,1,25.26,1715.3,0,3000
-7.9011e-16,-7.9011e-16,1.0828,78.632,66.461,5.5749,0.00045907,-0.0063199,0.10835,72.88,0,0,0,146.18,5352,3593,0.68406,66.461,79.031,0.99745,-0.071338,9.6334e-05,-9.6128e-05,6.3126e-06,1,-0.071338,-0.99745,-5.6105e-07,-0.0023303,0.002025,0.00066139,0.00062618,2.2596e-08,-2.9762e-07,0.0025977,0.00035607,-5.0187e-06,-3.1858e-09,-0.0023527,0.00066139,0.0020474,0.99745,-0.071338,4.9514e-05,-4.9421e-05,3.0621e-06,1,-0.071338,-0.99745,-4.7133e-07,-0.00028138,0.00036983,0.00026762,7.71e-09,-1.0614e-07,9.3629e-05,-0.0020489,0.0016551,0.00039377,1.4886e-08,-1.9148e-07,0.00053255,1,1,25.32,1715.3,0,3000
8.7316e-15,8.7316e-15,1.0828,78.632,66.461,5.5749,0.00045907,-0.0063199,0.10835,72.88,0,0,0,146.18,5352,3593,0.68406,66.461,79.031,0.99745,-0.071338,9.6334e-05,-9.6128e-05,6.3126e-06,1,-0.071338,-0.99745,-5.6105e-07,-0.0023303,0.002025,0.00066139,0.00062618,2.2596e-08,-2.9762e-07,0.0025977,0.00035607,-5.0187e-06,-3.1858e-09,-0.0023527,0.00066139,0.0020474,0.99745,-0.071338,4.9514e-05,-4.9421e-05,3.0621e-06,1,-0.071338,-0.99745,-4.7133e-07,-0.00028138,0.00036983,0.00026762,7.71e-09,-1.0614e-07,9.3629e-05,-0.0020489,0.0016551,0.00039377,1.4886e-08,-1.9148e-07,0.00053255,1,1,25.38,1715.4,0,3000
1.8234e-14,1.8234e-14,1.0828,78.632,66.461,5.5749,0.00045907,-0.0063199,0.10835,72.88,0,0,0,146.18,5352,3593,0.68406,66.461,79.031,0.99745,-0.071338,9.6334e-05,-9.6128e-05,6.3126e-06,1,-0.071338,-0.99745,-5.6105e-07,-0.0023303,0.002025,0.00066139,0.00062618,2.2596e-08,-2.9762e-07,0.0025977,0.00035607,-5.0187e-06,-3.1858e-09,-0.0023527,0.00066139,0.0020474,0.99745,-0.071338,4.9514e-05,-4.9421e-05,3.0621e-06,1,-0.071338,-0.99745,-4.7133e-07,-0.00028138,0.00036983,0.00026762,7.71e-09,-1.0614e-07,9.3629e-05,-0.0020489,0.0016551,0.00039377,1.4886e-08,-1.9148e-07,0.00053255,1,1,25.44,1715.4,0,3000
2.7756e-14,2.7756e-14,1.0828,78.632,66.461,5.5749,0.00045907,-0.0063199,0.10835,72.88,0,0,0,146.18,5352,3593,0.68406,66.461,79.031,0.99745,-0.071338,9.6334e-05,-9.6128e-05,6.3126e-06,1,-0.071338,-0.99745,-5.6105e-07,-0.0023303,0.002025,0.00066139,0.00062618,2.2596e-08,-2.9762e-07,0.0025977,0.00035607,-5.0187e-06,-3.1858e-09,-0.0023527,0.00066139,0.0020474,0.99745,-0.071338,4.9514e-05,-4.9421e-05,3.0621e-06,1,-0.071338,-0.99745,-4.7133e-07,-0.00028138,0.00036983,0.00026762,7.71e-09,-1.0614e-07,9.3629e-05,-0.0020489,0.0016551,0.00039377,1.4886e-08,-1.9148e-07,0.00053255,1,1,25.5,1715.5,0,3000
3.7277e-14,3.7277e-14,1.0828,78.632,66.461,5.5749,0.00045907,-0.0063199,0.10835,72.88,0,0,0,146.18,5352,3593,0.68406,66.461,79.031,0.99745,-0.071338,9.6334e-05,-9.6128e-05,6.3126e-06,1,-0.071338,-0.99745,-5.6105e-07,-0.0023303,0.002025,0.00066139,0.00062618,2.2596e-08,-2.9762e-07,0.0025977,0.00035607,-5.0187e-06,-3.1858e-09,-0.0023527,0.00066139,0.0020474,0.99745,-0.071338,4.9514e-05,-4.9421e-05,3.0621e-06,1,-0.071338,-0.99745,-4.7133e-07,-0.00028138,0.00036983,0.00026762,7.71e-09,-1.0614e-07,9.3629e-05,-0.0020489,0.0016551,0.00039377,1.4886e-08,-1.9148e-07,0.00053255,1,1,25.56,1715.6,0,3000
4.678e-14,4.678e-14,1.0828,78.632,66.461,5.5749,0.00045907,-0.0063199,0.10835,72.88,0,0,0,146.18,5352,3593,0.68406,66.461,79.031,0.99745,-0.071338,9.6334e-05,-9.6128e-05,6.3126e-06,1,-0.071338,-0.99745,-5.6105e-07,-0.0023303,0.002025,0.00066139,0.00062618,2.2596e-08,-2.9762e-07,0.0025977,0.00035607,-5.0187e-06,-3.1858e-09,-0.0023527,0.00066139,0.0020474,0.99745,-0.071338,4.9514e-05,-4.9421e-05,3.0621e-06,1,-0.071338,-0.99745,-4.7133e-07,-0.00028138,0.00036983,0.00026762,7.71e-09,-1.0614e-07,9.3629e-05,-0.0020489,0.0016551,0.00039377,1.4886e-08,-1.9148e-07,0.00053255,1,1,25.62,1715.6,0,3000
5.6301e-14,5.6301e-14,1.0828,78.632,66.461,5.5749,0.00045907,-0.0063199,0.10835,72.88,0,0,0,146.18,5352,3593,0.68406,66.461,79.031,0.99745,-0.071338,9.6334e-05,-9.6128e-05,6.3126e-06,1,-0.071338,-0.99745,-5.6105e-07,-0.0023303,0.002025,0.00066139,0.00062618,2.2596e-08,-2.9762e-07,0.0025977,0.00035607,-5.0187e-06,-3.1858e-09,-0.0023527,0.00066139,0.0020474,0.99745,-0.071338,4.9514e-05,-4.9421e-05,3.0621e-06,1,-0.071338,-0.99745,-4.7133e-07,-0.00028138,0.00036983,0.00026762,7.71e-09,-1.0614e-07,9.3629e-05,-0.0020489,0.0016551,0.00039377,1.4886e-08,-1.9148e-07,0.00053255,1,1,25.68,1715.7,0,3000
6.5804e-14,6.5804e-14,1.0828,78.632,66.461,5.5749,0.00045907,-0.0063199,0.10835,72.88,0,0,0,146.18,5352,3593,0.68406,66.461,79.031,0.99745,-0.071338,9.6334e-05,-9.6128e-05,6.3126e-06,1,-0.071338,-0.99745,-5.6105e-07,-0.0023303,0.002025,0.00066139,0.00062618,2.2596e-08,-2.9762e-07,0.0025977,0.00035607,-5.0187e-06,-3.1858e-09,-0.0023527,0.00066139,0.0020474,0.99745,-0.071338,4.9514e-05,-4.9421e-05,3.0621e-06,1,-0.071338,-0.99745,-4.7133e-07,-0.00028138,0.00036983,0.00026762,7.71e-09,-1.0614e-07,9.3629e-05,-0.0020489,0.0016551,0.00039377,1.4886e-08,-1.9148e-07,0.00053255,1,1,25.74,1715.7,0,3000
7.5325e-14,7.5325e-14,1.0828,78.632,66.461,5.5749,0.00045907,-0.0063199,0.10835,72.88,0,0,0,146.18,5352,3593,0.68406,66.461,79.031,0.99745,-0.071338,9.6334e-05,-9.6128e-05,6.3126e-06,1,-0.071338,-0.99745,-5.6105e-07,-0.0023303,0.002025,0.00066139,0.00062618,2.2596e-08,-2.9762e-07,0.0025977,0.00035607,-5.0187e-06,-3.1858e-09,-0.0023527,0.00066139,0.0020474,0.99745,-0.071338,4.9514e-05,-4.9421e-05,3.0621e-06,1,-0.071338,-0.99745,-4.7133e-07,-0.00028138,0.00036983,0.00026762,7.71e-09,-1.0614e-07,9.3629e-05,-0.0020489,0.0016551,0.00039377,1.4886e-08,-1.9148e-07,0.00053255,1,1,25.8,1715.8,0,3000
8.4828e-14,8.4828e-14,1.0828,78.632,66.461,5.5749,0.00045907,-0.0063199,0.10835,72.88,0,0,0,146.18,5352,3593,0.68406,66.461,79.031,0.99745,-0.071338,9.6334e-05,-9.6128e-05,6.3126e-06,1,-0.071338,-0.99745,-5.6105e-07,-0.0023303,0.002025,0.00066139,0.00062618,2.2596e-08,-2.9762e-07,0.0025977,0.00035607,-5.0187e-06,-3.1858e-09,-0.0023527,0.00066139,0.0020474,0.99745,-0.071338,4.9514e-05,-4.9421e-05,3.0621e-06,1,-0.071338,-0.99745,-4.7133e-07,-0.00028138,0.00036983,0.00026762,7.71e-09,-1.0614e-07,9.3629e-05,-0.0020489,0.0016551,0.00039377,1.4886e-08,-1.9148e-07,0.00053255,1,1,25.86,1715.9,0,3000
9.4349e-14,9.4349e-14,1.0828,78.632,66.461,5.5749,0.00045907,-0.0063199,0.10835,72.88,0,0,0,146.18,5352,3593,0.68406,66.461,79.031,0.99745,-0.071338,9.6334e-05,-9.6128e-05,6.3126e-06,1,-0.071338,-0.99745,-5.6105e-07,-0.0023303,0.002025,0.00066139,0.00062618,2.2596e-08,-2.9762e-07,0.0025977,0.00035607,-5.0187e-06,-3.1858e-09,-0.0023527,0.00066139,0.0020474,0.99745,-0.071338,4.9514e-05,-4.9421e-05,3.0621e-06,1,-0.071338,-0.99745,-4.7133e-07,-0.00028138,0.00036983,0.00026762,7.71e-09,-1.0614e-07,9.3629e-05,-0.0020489,0.0016551,0.00039377,1.4886e-08,-1.9148e-07,0.00053255,1,1,25.92,1715.9,0,3000
1.0385e-13,1.0385e-13,1.0828,78.632,66.461,5.5749,0.00045907,-0.0063199,0.10835,72.88,0,0,0,146.18,5352,3593,0.68406,66.461,79.031,0.99745,-0.071338,9.6334e-05,-9.6128e-05,6.3126e-06,1,-0.071338,-0.99745,-5.6105e-07,-0.0023303,0.002025,0.00066139,0.00062618,2.2596e-08,-2.9762e-07,0.0025977,0.00035607,-5.0187e-06,-3.1858e-09,-0.0023527,0.00066139,0.0020474,0.99745,-0.071338,4.9514e-05,-4.9421e-05,3.0621e-06,1,-0.071338,-0.99745,-4.7133e-07,-0.00028138,0.00036983,0.00026762,7.71e-09,-1.0614e-07,9.3629e-05,-0.0020489,0.0016551,0.00039377,1.4886e-08,-1.9148e-07,0.00053255,1,1,25.98,1716,0,3000
1.0452e-13,1.0452e-13,1.0864,71.948,59.795,5.0941,0.00044722,-0.0061585,0.1062,66.225,0,0,0,132.83,4419.3,3122.2,0.72208,59.795,72.312,0.99745,-0.071338,0.00010453,-0.0001043,6.9196e-06,1,-0.071338,-0.99745,-5.3852e-07,-0.00236,0.0020222,0.00066131,0.00063006,2.0933e-08,-2.7653e-07,0.0026153,0.00032356,-5.095e-06,-3.2217e-09,-0.0023825,0.00066131,0.0020448,0.99745,-0.071338,4.5555e-05,-4.5468e-05,2.8343e-06,1,-0.071338,-0.99745,-4.1657e-07,-0.00025483,0.00034022,0.00023817,7.511e-09,-1.0343e-07,8.5555e-05,-0.0021051,0.001682,0.00042314,1.3422e-08,-1.731e-07,0.0005445,1,1,26.04,1716,0,3000
1.0077e-13,1.0077e-13,1.0864,71.948,59.795,5.0941,0.00044722,-0.0061585,0.1062,66.225,0,0,0,132.83,4419.3,3122.2,0.72208,59.795,72.312,0.99745,-0.071338,0.00010453,-0.0001043,6.9196e-06,1,-0.071338,-0.99745,-5.3852e-07,-0.00236,0.0020222,0.00066131,0.00063006,2.0933e-08,-2.7653e-07,0.0026153,0.00032356,-5.095e-06,-3.2217e-09,-0.0023825,0.00066131,0.0020448,0.99745,-0.071338,4.5555e-05,-4.5468e-05,2.8343e-06,1,-0.071338,-0.99745,-4.1657e-07,-0.00025483,0.00034022,0.00023817,7.511e-09,-1.0343e-07,8.5555e-05,-0.0021051,0.001682,0.00042314,1.3422e-08,-1.731e-07,0.0005445,1,1,26.1,1716.1,0,3000
9.7005e-14,9.7005e-14,1.0864,71.948,59.795,5.0941,0.00044722,-0.0061585,0.1062,66.225,0,0,0,132.83,4419.3,3122.2,0.72208,59.795,72.312,0.99745,-0.071338,0.00010453,-0.0001043,6.9196e-06,1,-0.071338,-0.99745,-5.3852e-07,-0.00236,0.0020222,0.00066131,0.00063006,2.0933e-08,-2.7653e-07,0.0026153,0.00032356,-5.095e-06,-3.2217e-09,-0.0023825,0.00066131,0.0020448,0.99745,-0.071338,4.5555e-05,-4.5468e-05,2.8343e-06,1,-0.071338,-0.99745,-4.1657e-07,-0.00025483,0.00034022,0.00023817,7.511e-09,-1.0343e-07,8.5555e-05,-0.0021051,0.001682,0.00042314,1.3422e-08,-1.731e-07,0.0005445,1,1,26.16,1716.2,0,3000
9.3252e-14,9.3252e-14,1.0864,71.948,59.795,5.0941,0.00044722,-0.0061585,0.1062,66.225,0,0,0,132.83,4419.3,3122.2,0.72208,59.795,72.312,0.99745,-0.071338,0.00010453,-0.0001043,6.9196e-06,1,-0.071338,-0.99745,-5.3852e-07,-0.00236,0.0020222,0.00066131,0.00063006,2.0933e-08,-2.7653e-07,0.0026153,0.00032356,-5.095e-06,-3.2217e-09,-0.0023825,0.00066131,0.0020448,0.99745,-0.071338,4.5555e-05,-4.5468e-05,2.8343e-06,1,-0.071338,-0.99745,-4.1657e-07,-0.00025483,0.00034022,0.00023817,7.511e-09,-1.0343e-07,8.5555e-05,-0.0021051,0.001682,0.00042314,1.3422e-08,-1.731e-07,0.0005445,1,1,26.22,1716.2,0,3000
8.9491e-14,8.9491e-14,1.0864,71.948,59.795,5.0941,0.00044722,-0.0061585,0.1062,66.225,0,0,0,132.83,4419.3,3122.2,0.72208,59.795,72.312,0.99745,-0.071338,0.00010453,-0.0001043,6.9196e-06,1,-0.071338,-0.99745,-5.3852e-07,-0.00236,0.0020222,0.00066131,0.00063006,2.0933e-08,-2.7653e-07,0.0026153,0.00032356,-5.095e-06,-3.2217e-09,-0.0023825,0.00066131,0.0020448,0.99745,-0.071338,4.5555e-05,-4.5468e-05,2.8343e-06,1,-0.071338,-0.99745,-4.1657e-07,-0.00025483,0.00034022,0.00023817,7.511e-09,-1.0343e-07,8.5555e-05,-0.0021051,0.001682,0.00042314,1.3422e-08,-1.731e-07,0.0005445,1,1,26.28,1716.3,0,3000
8.5738e-14,8.5738e-14,1.0864,71.948,59.795,5.0941,0.00044722,-0.0061585,0.1062,66.225,0,0,0,132.83,4419.3,3122.2,0.72208,59.795,72.312,0.99745,-0.071338,0.00010453,-0.0001043,6.9196e-06,1,-0.071338,-0.99745,-5.3852e-07,-0.00236,0.0020222,0.00066131,0.00063006,2.0933e-08,-2.7653e-07,0.0026153,0.00032356,-5.095e-06,-3.2217e-09,-0.0023825,0.00066131,0.0020448,0.99745,-0.071338,4.5555e-05,-4.5468e-05,2.8343e-06,1,-0.071338,-0.99745,-4.1657e-07,-0.00025483,0.00034022,0.00023817,7.511e-09,-1.0343e-07,8.5555e-05,-0.0021051,0.001682,0.00042314,1.3422e-08,-1.731e-07,0.0005445,1,1,26.34,1716.3,0,3000
8.1977e-14,8.1977e-14,1.0864,71.948,59.795,5.0941,0.00044722,-0.0061585,0.1062,66.225,0,0,0,132.83,4419.3,3122.2,0.72208,59.795,72.312,0.99745,-0.071338,0.00010453,-0.0001043,6.9196e-06,1,-0.071338,-0.99745,-5.3852e-07,-0.00236,0.0020222,0.00066131,0.00063006,2.0933e-08,-2.7653e-07,0.0026153,0.00032356,-5.095e-06,-3.2217e-09,-0.0023825,0.00066131,0.0020448,0.99745,-0.071338,4.5555e-05,-4.5468e-05,2.8343e-06,1,-0.071338,-0.99745,-4.1657e-07,-0.00025483,0.00034022,0.00023817,7.511e-09,-1.0343e-07,8.5555e-05,-0.0021051,0.001682,0.00042314,1.3422e-08,-1.731e-07,0.0005445,1,1,26.4,1716.4,0,3000
7.8224e-14,7.8224e-14,1.0864,71.948,59.795,5.0941,0.00044722,-0.0061585,0.1062,66.225,0,0,0,132.83,4419.3,3122.2,0.72208,59.795,72.312,0.99745,-0.071338,0.00010453,-0.0001043,6.9196e-06,1,-0.071338,-0.99745,-5.3852e-07,-0.00236,0.0020222,0.00066131,0.00063006,2.0933e-08,-2.7653e-07,0.0026153,0.00032356,-5.095e-06,-3.2217e-09,-0.0023825,0.00066131,0.0020448,0.99745,-0.071338,4.5555e-05,-4.5468e-05,2.8343e-06,1,-0.071338,-0.99745,-4.1657e-07,-0.00025483,0.00034022,0.00023817,7.511e-09,-1.0343e-07,8.5555e-05,-0.0021051,0.001682,0.00042314,1.3422e-08,-1.731e-07,0.0005445,1,1,26.46,1716.5,0,3000
7.4464e-14,7.4464e-14,1.0864,71.948,59.795,5.0941,0.00044722,-0.0061585,0.1062,66.225,0,0,0,132.83,4419.3,3122.2,0.72208,59.795,72.312,0.99745,-0.071338,0.00010453,-0.0001043,6.9196e-06,1,-0.071338,-0.99745,-5.3852e-07,-0.00236,0.0020222,0.00066131,0.00063006,2.0933e-08,-2.7653e-07,0.0026153,0.00032356,-5.095e-06,-3.2217e-09,-0.0023825,0.00066131,0.0020448,0.99745,-0.071338,4.5555e-05,-4.5468e-05,2.8343e-06,1,-0.071338,-0.99745,-4.1657e-07,-0.00025483,0.00034022,0.00023817,7.511e-09,-1.0343e-07,8.5555e-05,-0.0021051,0.001682,0.00042314,1.3422e-08,-1.731e-07,0.0005445,1,1,26.52,1716.5,0,3000
7.0711e-14,7.0711e-14,1.0864,71.948,59.795,5.0941,0.00044722,-0.0061585,0.1062,66.225,0,0,0,132.83,4419.3,3122.2,0.72208,59.795,72.312,0.99745,-0.071338,0.00010453,-0.0001043,6.9196e-06,1,-0.071338,-0.99745,-5.3852e-07,-0.00236,0.0020222,0.00066131,0.00063006,2.0933e-08,-2.7653e-07,0.0026153,0.00032356,-5.095e-06,-3.2217e-09,-0.0023825,0.00066131,0.0020448,0.99745,-0.071338,4.5555e-05,-4.5468e-05,2.8343e-06,1,-0.071338,-0.99745,-4.1657e-07,-0.00025483,0.00034022,0.00023817,7.511e-09,-1.0343e-07,8.5555e-05,-0.0021051,0.001682,0.00042314,1.3422e-08,-1.731e-07,0.0005445,1,1,26.58,1716.6,0,3000
6.695e-14,6.695e-14,1.0864,71.948,59.795,5.0941,0.00044722,-0.0061585,0.1062,66.225,0,0,0,132.83,4419.3,3122.2,0.72208,59.795,72.312,0.99745,-0.071338,0.00010453,-0.0001043,6.9196e-06,1,-0.071338,-0.99745,-5.3852e-07,-0.00236,0.0020222,0.00066131,0.00063006,2.0933e-08,-2.7653e-07,0.0026153,0.00032356,-5.095e-06,-3.2217e-09,-0.0023825,0.00066131,0.0020448,0.99745,-0.071338,4.5555e-05,-4.5468e-05,2.8343e-06,1,-0.071338,-0.99745,-4.1657e-07,-0.00025483,0.00034022,0.00023817,7.511e-09,-1.0343e-07,8.5555e-05,-0.0021051,0.001682,0.00042314,1.3422e-08,-1.731e-07,0.0005445,1,1,26.64,1716.6,0,3000
6.3197e-14,6.3197e-14,1.0864,71.948,59.795,5.0941,0.00044722,-0.0061585,0.1062,66.225,0,0,0,132.83,4419.3,3122.2,0.72208,59.795,72.312,0.99745,-0.071338,0.00010453,-0.0001043,6.9196e-06,1,-0.071338,-0.99745,-5.3852e-07,-0.00236,0.0020222,0.00066131,0.00063006,2.0933e-08,-2.7653e-07,0.0026153,0.00032356,-5.095e-06,-3.2217e-09,-0.0023825,0.00066131,0.0020448,0.99745,-0.071338,4.5555e-05,-4.5468e-05,2.8343e-06,1,-0.071338,-0.99745,-4.1657e-07,-0.00025483,0.00034022,0.00023817,7.511e-09,-1.0343e-07,8.5555e-05,-0.0021051,0.001682,0.00042314,1.3422e-08,-1.731e-07,0.0005445,1,1,26.7,1716.7,0,3000
5.9436e-14,5.9436e-14,1.0864,71.948,59.795,5.0941,0.00044722,-0.0061585,0.1062,66.225,0,0,0,132.83,4419.3,3122.2,0.72208,59.795,72.312,0.99745,-0.071338,0.00010453,-0.0001043,6.9196e-06,1,-0.071338,-0.99745,-5.3852e-07,-0.00236,0.0020222,0.00066131,0.00063006,2.0933e-08,-2.7653e-07,0.0026153,0.00032356,-5.095e-06,-3.2217e-09,-0.0023825,0.00066131,0.0020448,0.99745,-0.071338,4.5555e-05,-4.5468e-05,2.8343e-06,1,-0.071338,-0.99745,-4.1657e-07,-0.00025483,0.00034022,0.00023817,7.511e-09,-1.0343e-07,8.5555e-05,-0.0021051,0.001682,0.00042314,1.3422e-08,-1.731e-07,0.0005445,1,1,26.76,1716.8,0,3000
5.5683e-14,5.5683e-14,1.0864,71.948,59.795,5.0941,0.00044722,-0.0061585,0.1062,66.225,0,0,0,132.83,4419.3,3122.2,0.72208,59.795,72.312,0.99745,-0.071338,0.00010453,-0.0001043,6.9196e-06,1,-0.071338,-0.99745,-5.3852e-07,-0.00236,0.0020222,0.00066131,0.00063006,2.0933e-08,-2.7653e-07,0.0026153,0.00032356,-5.095e-06,-3.2217e-09,-0.0023825,0.00066131,0.0020448,0.99745,-0.071338,4.5555e-05,-4.5468e-05,2.8343e-06,1,-0.071338,-0.99745,-4.1657e-07,-0.00025483,0.00034022,0.00023817,7.511e-09,-1.0343e-07,8.5555e-05,-0.0021051,0.001682,0.00042314,1.3422e-08,-1.731e-07,0.0005445,1,1,26.82,1716.8,0,3000
5.1923e-14,5.1923e-14,1.0864,71.948,59.795,5.0941,0.00044722,-0.0061585,0.1062,66.225,0,0,0,132.83,4419.3,3122.2,0.72208,59.795,72.312,0.99745,-0.071338,0.00010453,-0.0001043,6.9196e-06,1,-0.071338,-0.99745,-5.3852e-07,-0.00236,0.0020222,0.00066131,0.00063006,2.0933e-08,-2.7653e-07,0.0026153,0.00032356,-5.095e-06,-3.2217e-09,-0.0023825,0.00066131,0.0020448,0.99745,-0.071338,4.5555e-05,-4.5468e-05,2.8343e-06,1,-0.071338,-0.99745,-4.1657e-07,-0.00025483,0.00034022,0.00023817,7.511e-09,-1.0343e-07,8.5555e-05,-0.0021051,0.001682,0.00042314,1.3422e-08,-1.731e-07,0.0005445,1,1,26.88,1716.9,0,3000
4.817e-14,4.817e-14,1.0864,71.948,59.795,5.0941,0.00044722,-0.0061585,0.1062,66.225,0,0,0,132.83,4419.3,3122.2,0.72208,59.795,72.312,0.99745,-0.071338,0.00010453,-0.0001043,6.9196e-06,1,-0.071338,-0.99745,-5.3852e-07,-0.00236,0.0020222,0.00066131,0.00063006,2.0933e-08,-2.7653e-07,0.0026153,0.00032356,-5.095e-06,-3.2217e-09,-0.0023825,0.00066131,0.0020448,0.99745,-0.071338,4.5555e-05,-4.5468e-05,2.8343e-06,1,-0.071338,-0.99745,-4.1657e-07,-0.00025483,0.00034022,0.00023817,7.511e-09,-1.0343e-07,8.5555e-05,-0.0021051,0.001682,0.00042314,1.3422e-08,-1.731e-07,0.0005445,1,1,26.94,1716.9,0,3000
4.4409e-14,4.4409e-14,1.0861,65.255,53.107,4.613,0.00043565,-0.0060009,0.10469,59.579,0,0,0,119.45,3572.8,2633.7,0.75614,53.107,65.585,0.99745,-0.071338,0.00011493,-0.00011467,7.6832e-06,1,-0.071338,-0.99745,-5.1691e-07,-0.0023898,0.0020195,0.00066123,0.00063394,1.9333e-08,-2.5631e-07,0.002633,0.00029096,-5.1714e-06,-3.2576e-09,-0.0024124,0.00066123,0.0020422,0.99745,-0.071338,4.1813e-05,-4.1732e-05,2.6221e-06,1,-0.071338,-0.99745,-3.6167e-07,-0.00022825,0.00031061,0.0002086,7.3167e-09,-1.0078e-07,7.7475e-05,-0.0021615,0.0017089,0.00045263,1.2016e-08,-1.5552e-07,0.00055647,1,1,27,1717,0,3000
4.2182e-14,4.2182e-14,1.0861,65.255,53.107,4.613,0.00043565,-0.0060009,0.10469,59.579,0,0,0,119.45,3572.8,2633.7,0.75614,53.107,65.585,0.99745,-0.071338,0.00011493,-0.00011467,7.6832e-06,1,-0.071338,-0.99745,-5.1691e-07,-0.0023898,0.0020195,0.00066123,0.00063394,1.9333e-08,-2.5631e-07,0.002633,0.00029096,-5.1714e-06,-3.2576e-09,-0.0024124,0.00066123,0.0020422,0.99745,-0.071338,4.1813e-05,-4.1732e-05,2.6221e-06,1,-0.071338,-0.99745,-3.6167e-07,-0.00022825,0.00031061,0.0002086,7.3167e-09,-1.0078e-07,7.7475e-05,-0.0021615,0.0017089,0.00045263,1.2016e-08,-1.5552e-07,0.00055647,1,1,27.06,1717.1,0,3000
3.9959e-14,3.9959e-14,1.0861,65.255,53.107,4.613,0.00043565,-0.0060009,0.10469,59.579,0,0,0,119.45,3572.8,2633.7,0.75614,53.107,65.585,0.99745,-0.071338,0.00011493,-0.00011467,7.6832e-06,1,-0.071338,-0.99745,-5.1691e-07,-0.0023898,0.0020195,0.00066123,0.00063394,1.9333e-08,-2.5631e-07,0.002633,0.00029096,-5.1714e-06,-3.2576e-09,-0.0024124,0.00066123,0.0020422,0.99745,-0.071338,4.1813e-05,-4.1732e-05,2.6221e-06,1,-0.071338,-0.99745,-3.6167e-07,-0.00022825,0.00031061,0.0002086,7.3167e-09,-1.0078e-07,7.7475e-05,-0.0021615,0.0017089,0.00045263,1.2016e-08,-1.5552e-07,0.00055647,1,1,27.12,1717.1,0,3000
3.7732e-14,3.7732e-14,1.0861,65.255,53.107,4.613,0.00043565,-0.0060009,0.10469,59.579,0,0,0,119.45,3572.8,2633.7,0.75614,53.107,65.585,0.99745,-0.071338,0.00011493,-0.00011467,7.6832e-06,1,-0.071338,-0.99745,-5.1691e-07,-0.0023898,0.0020195,0.00066123,0.00063394,1.9333e-08,-2.5631e-07,0.002633,0.00029096,-5.1714e-06,-3.2576e-09,-0.0024124,0.00066123,0.0020422,0.99745,-0.071338,4.1813e-05,-4.1732e-05,2.6221e-06,1,-0.071338,-0.99745,-3.6167e-07,-0.00022825,0.00031061,0.0002086,7.3167e-09,-1.0078e-07,7.7475e-05,-0.0021615,0.0017089,0.00045263,1.2016e-08,-1.5552e-07,0.00055647,1,1,27.18,1717.2,0,3000
3.551e-14,3.551e-14,1.0861,65.255,53.107,4.613,0.00043565,-0.0060009,0.10469,59.579,0,0,0,119.45,3572.8,2633.7,0.75614,53.107,65.585,0.99745,-0.071338,0.00011493,-0.00011467,7.6832e-06,1,-0.071338,-0.99745,-5.1691e-07,-0.0023898,0.0020195,0.00066123,0.00063394,1.9333e-08,-2.5631e-07,0.002633,0.00029096,-5.1714e-06,-3.2576e-09,-0.0024124,0.00066123,0.0020422,0.99745,-0.071338,4.1813e-05,-4.1732e-05,2.6221e-06,1,-0.071338,-0.99745,-3.6167e-07,-0.00022825,0.00031061,0.0002086,7.3167e-09,-1.0078e-07,7.7475e-05,-0.0021615,0.0017089,0.00045263,1.2016e-08,-1.5552e-07,0.00055647,1,1,27.24,1717.2,0,3000
3.3283e-14,3.3283e-14,1.0861,65.255,53.107,4.613,0.00043565,-0.0060009,0.10469,59.579,0,0,0,119.45,3572.8,2633.7,0.75614,53.107,65.585,0.99745,-0.071338,0.00011493,-0.00011467,7.6832e-06,1,-0.071338,-0.99745,-5.1691e-07,-0.0023898,0.0020195,0.00066123,0.00063394,1.9333e-08,-2.5631e-07,0.002633,0.00029096,-5.1714e-06,-3.2576e-09,-0.0024124,0.00066123,0.0020422,0.99745,-0.071338,4.1813e-05,-4.1732e-05,2.6221e-06,1,-0.071338,-0.99745,-3.6167e-07,-0.00022825,0.00031061,0.0002086,7.3167e-09,-1.0078e-07,7.7475e-05,-0.0021615,0.0017089,0.00045263,1.2016e-08,-1.5552e-07,0.00055647,1,1,27.3,1717.3,0,3000
3.106e-14,3.106e-14,1.0861,65.255,53.107,4.613,0.00043565,-0.0060009,0.10469,59.579,0,0,0,119.45,3572.8,2633.7,0.75614,53.107,65.585,0.99745,-0.071338,0.00011493,-0.00011467,7.6832e-06,1,-0.071338,-0.99745,-5.1691e-07,-0.0023898,0.0020195,0.00066123,0.00063394,1.9333e-08,-2.5631e-07,0.002633,0.00029096,-5.1714e-06,-3.2576e-09,-0.0024124,0.00066123,0.0020422,0.99745,-0.071338,4.1813e-05,-4.1732e-05,2.6221e-06,1,-0.071338,-0.99745,-3.6167e-07,-0.00022825,0.00031061,0.0002086,7.3167e-09,-1.0078e-07,7.7475e-05,-0.0021615,0.0017089,0.00045263,1.2016e-08,-1.5552e-07,0.00055647,1,1,27.36,1717.4,0,3000
2.8833e-14,2.8833e-14,1.0861,65.255,53.107,4.613,0.00043565,-0.0060009,0.10469,59.579,0,0,0,119.45,3572.8,2633.7,0.75614,53.107,65.585,0.99745,-0.071338,0.00011493,-0.00011467,7.6832e-06,1,-0.071338,-0.99745,-5.1691e-07,-0.0023898,0.0020195,0.00066123,0.00063394,1.9333e-08,-2.5631e-07,0.002633,0.00029096,-5.1714e-06,-3.2576e-09,-0.0024124,0.00066123,0.0020422,0.99745,-0.071338,4.1813e-05,-4.1732e-05,2.6221e-06,1,-0.071338,-0.99745,-3.6167e-07,-0.00022825,0.00031061,0.0002086,7.3167e-09,-1.0078e-07,7.7475e-05,-0.0021615,0.0017089,0.00045263,1.2016e-08,-1.5552e-07,0.00055647,1,1,27.42,1717.4,0,3000
2.6611e-14,2.6611e-14,1.0861,65.255,53.107,4.613,0.00043565,-0.0060009,0.10469,59.579,0,0,0,119.45,3572.8,2633.7,0.75614,53.107,65.585,0.99745,-0.071338,0.00011493,-0.00011467,7.6832e-06,1,-0.071338,-0.99745,-5.1691e-07,-0.0023898,0.0020195,0.00066123,0.00063394,1.9333e-08,-2.5631e-07,0.002633,0.00029096,-5.1714e-06,-3.2576e-09,-0.0024124,0.00066123,0.0020422,0.99745,-0.071338,4.1813e-05,-4.1732e-05,2.6221e-06,1,-0.071338,-0.99745,-3.6167e-07,-0.00022825,0.00031061,0.0002086,7.3167e-09,-1.0078e-07,7.7475e-05,-0.0021615,0.0017089,0.00045263,1.2016e-08,-1.5552e-07,0.00055647,1,1,27.48,1717.5,0,3000
2.4383e-14,2.4383e-14,1.0861,65.255,53.107,4.613,0.00043565,-0.0060009,0.10469,59.579,0,0,0,119.45,3572.8,2633.7,0.75614,53.107,65.585,0.99745,-0.071338,0.00011493,-0.00011467,7.6832e-06,1,-0.071338,-0.99745,-5.1691e-07,-0.0023898,0.0020195,0.00066123,0.00063394,1.9333e-08,-2.5631e-07,0.002633,0.00029096,-5.1714e-06,-3.2576e-09,-0.0024124,0.00066123,0.0020422,0.99745,-0.071338,4.1813e-05,-4.1732e-05,2.6221e-06,1,-0.071338,-0.99745,-3.6167e-07,-0.00022825,0.00031061,0.0002086,7.3167e-09,-1.0078e-07,7.7475e-05,-0.0021615,0.0017089,0.00045263,1.2016e-08,-1.5552e-07,0.00055647,1,1,27.54,1717.5,0,3000
2.2161e-14,2.2161e-14,1.0861,65.255,53.107,4.613,0.00043565,-0.0060009,0.10469,59.579,0,0,0,119.45,3572.8,2633.7,0.75614,53.107,65.585,0.99745,-0.071338,0.00011493,-0.00011467,7.6832e-06,1,-0.071338,-0.99745,-5.1691e-07,-0.0023898,0.0020195,0.00066123,0.00063394,1.9333e-08,-2.5631e-07,0.002633,0.00029096,-5.1714e-06,-3.2576e-09,-0.0024124,0.00066123,0.0020422,0.99745,-0.071338,4.1813e-05,-4.1732e-05,2.6221e-06,1,-0.071338,-0.99745,-3.6167e-07,-0.00022825,0.00031061,0.0002086,7.3167e-09,-1.0078e-07,7.7475e-05,-0.0021615,0.0017089,0.00045263,1.2016e-08,-1.5552e-07,0.00055647,1,1,27.6,1717.6,0,3000
1.9934e-14,1.9934e-14,1.0861,65.255,53.107,4.613,0.00043565,-0.0060009,0.10469,59.579,0,0,0,119.45,3572.8,2633.7,0.75614,53.107,65.585,0.99745,-0.071338,0.00011493,-0.00011467,7.6832e-06,1,-0.071338,-0.99745,-5.1691e-07,-0.0023898,0.0020195,0.00066123,0.00063394,1.9333e-08,-2.5631e-07,0.002633,0.00029096,-5.1714e-06,-3.2576e-09,-0.0024124,0.00066123,0.0020422,0.99745,-0.071338,4.1813e-05,-4.1732e-05,2.6221e-06,1,-0.071338,-0.99745,-3.6167e-07,-0.00022825,0.00031061,0.0002086,7.3167e-09,-1.0078e-07,7.7475e-05,-0.0021615,0.0017089,0.00045263,1.2016e-08,-1.5552e-07,0.00055647,1,1,27.66,1717.7,0,3000
1.7711e-14,1.7711e-14,1.0861,65.255,53.107,4.613,0.00043565,-0.0060009,0.10469,59.579,0,0,0,119.45,3572.8,2633.7,0.75614,53.107,65.585,0.99745,-0.071338,0.00011493,-0.00011467,7.6832e-06,1,-0.071338,-0.99745,-5.1691e-07,-0.0023898,0.0020195,0.00066123,0.00063394,1.9333e-08,-2.5631e-07,0.002633,0.00029096,-5.1714e-06,-3.2576e-09,-0.0024124,0.00066123,0.0020422,0.99745,-0.071338,4.1813e-05,-4.1732e-05,2.6221e-06,1,-0.071338,-0.99745,-3.6167e-07,-0.00022825,0.00031061,0.0002086,7.3167e-09,-1.0078e-07,7.7475e-05,-0.0021615,0.0017089,0.00045263,1.2016e-08,-1.5552e-07,0.00055647,1,1,27.72,1717.7,0,3000
1.5484e-14,1.5484e-14,1.0861,65.255,53.107,4.613,0.00043565,-0.0060009,0.10469,59.579,0,0,0,119.45,3572.8,2633.7,0.75614,53.107,65.585,0.99745,-0.071338,0.00011493,-0.00011467,7.6832e-06,1,-0.071338,-0.99745,-5.1691e-07,-0.0023898,0.0020195,0.00066123,0.00063394,1.9333e-08,-2.5631e-07,0.002633,0.00029096,-5.1714e-06,-3.2576e-09,-0.0024124,0.00066123,0.0020422,0.99745,-0.071338,4.1813e-05,-4.1732e-05,2.6221e-06,1,-0.071338,-0.99745,-3.6167e-07,-0.00022825,0.00031061,0.0002086,7.3167e-09,-1.0078e-07,7.7475e-05,-0.0021615,0.0017089,0.00045263,1.2016e-08,-1.5552e-07,0.00055647,1,1,27.78,1717.8,0,3000
1.3262e-14,1.3262e-14,1.0861,65.255,53.107,4.613,0.00043565,-0.0060009,0.10469,59.579,0,0,0,119.45,3572.8,2633.7,0.75614,53.107,65.585,0.99745,-0.071338,0.00011493,-0.00011467,7.6832e-06,1,-0.071338,-0.99745,-5.1691e-07,-0.0023898,0.0020195,0.00066123,0.00063394,1.9333e-08,-2.5631e-07,0.002633,0.00029096,-5.1714e-06,-3.2576e-09,-0.0024124,0.00066123,0.0020422,0.99745,-0.071338,4.1813e-05,-4.1732e-05,2.6221e-06,1,-0.071338,-0.99745,-3.6167e-07,-0.00022825,0.00031061,0.0002086,7.3167e-09,-1.0078e-07,7.7475e-05,-0.0021615,0.0017089,0.00045263,1.2016e-08,-1.5552e-07,0.00055647,1,1,27.84,1717.8,0,3000
1.1035e-14,1.1035e-14,1.0861,65.255,53.107,4.613,0.00043565,-0.0060009,0.10469,59.579,0,0,0,119.45,3572.8,2633.7,0.75614,53.107,65.585,0.99745,-0.071338,0.00011493,-0.00011467,7.6832e-06,1,-0.071338,-0.99745,-5.1691e-07,-0.0023898,0.0020195,0.00066123,0.00063394,1.9333e-08,-2.5631e-07,0.002633,0.00029096,-5.1714e-06,-3.2576e-09,-0.0024124,0.00066123,0.0020422,0.99745,-0.071338,4.1813e-05,-4.1732e-05,2.6221e-06,1,-0.071338,-0.99745,-3.6167e-07,-0.00022825,0.00031061,0.0002086,7.3167e-09,-1.0078e-07,7.7475e-05,-0.0021615,0.0017089,0.00045263,1.2016e-08,-1.5552e-07,0.00055647,1,1,27.9,1717.9,0,3000
8.8122e-15,8.8122e-15,1.0861,65.255,53.107,4.613,0.00043565,-0.0060009,0.10469,59.579,0,0,0,119.45,3572.8,2633.7,0.75614,53.107,65.585,0.99745,-0.071338,0.00011493,-0.00011467,7.6832e-06,1,-0.071338,-0.99745,-5.1691e-07,-0.0023898,0.0020195,0.00066123,0.00063394,1.9333e-08,-2.5631e-07,0.002633,0.00029096,-5.1714e-06,-3.2576e-09,-0.0024124,0.00066123,0.0020422,0.99745,-0.071338,4.1813e-05,-4.1732e-05,2.6221e-06,1,-0.071338,-0.99745,-3.6167e-07,-0.00022825,0.00031061,0.0002086,7.3167e-09,-1.0078e-07,7.7475e-05,-0.0021615,0.0017089,0.00045263,1.2016e-08,-1.5552e-07,0.00055647,1,1,27.96,1718,0,3000
6.4251e-15,6.4251e-15,1.0817,58.558,46.403,4.1318,0.00042437,-0.0058472,0.10381,52.952,0,0,0,106.04,2813.7,2147.2,0.78623,46.403,58.853,0.99745,-0.071338,0.00012852,-0.00012822,8.6742e-06,1,-0.071338,-0.99745,-4.9518e-07,-0.0024196,0.0020167,0.00066115,0.00063783,1.7802e-08,-2.3706e-07,0.0026508,0.00025831,-5.2477e-06,-3.2934e-09,-0.0024424,0.00066115,0.0020395,0.99745,-0.071338,3.8299e-05,-3.8223e-05,2.4262e-06,1,-0.071338,-0.99745,-3.0672e-07,-0.00020164,0.00028101,0.00017894,7.1273e-09,-9.8203e-08,6.9393e-05,-0.0022179,0.0017357,0.0004822,1.0675e-08,-1.3885e-07,0.00056844,1,1,28.02,1718,0,3000
3.7234e-15,3.7234e-15,1.0817,58.558,46.403,4.1318,0.00042437,-0.0058472,0.10381,52.952,0,0,0,106.04,2813.7,2147.2,0.78623,46.403,58.853,0.99745,-0.071338,0.00012852,-0.00012822,8.6742e-06,1,-0.071338,-0.99745,-4.9518e-07,-0.0024196,0.0020167,0.00066115,0.00063783,1.7802e-08,-2.3706e-07,0.0026508,0.00025831,-5.2477e-06,-3.2934e-09,-0.0024424,0.00066115,0.0020395,0.99745,-0.071338,3.8299e-05,-3.8223e-05,2.4262e-06,1,-0.071338,-0.99745,-3.0672e-07,-0.00020164,0.00028101,0.00017894,7.1273e-09,-9.8203e-08,6.9393e-05,-0.0022179,0.0017357,0.0004822,1.0675e-08,-1.3885e-07,0.00056844,1,1,28.08,1718.1,0,3000
1.0163e-15,1.0163e-15,1.0817,58.558,46.403,4.1318,0.00042437,-0.0058472,0.10381,52.952,0,0,0,106.04,2813.7,2147.2,0.78623,46.403,58.853,0.99745,-0.071338,0.00012852,-0.00012822,8.6742e-06,1,-0.071338,-0.99745,-4.9518e-07,-0.0024196,0.0020167,0.00066115,0.00063783,1.7802e-08,-2.3706e-07,0.0026508,0.00025831,-5.2477e-06,-3.2934e-09,-0.0024424,0.00066115,0.0020395,0.99745,-0.071338,3.8299e-05,-3.8223e-05,2.4262e-06,1,-0.071338,-0.99745,-3.0672e-07,-0.00020164,0.00028101,0.00017894,7.1273e-09,-9.8203e-08,6.9393e-05,-0.0022179,0.0017357,0.0004822,1.0675e-08,-1.3885e-07,0.00056844,1,1,28.14,1718.1,0,3000
-1.6853e-15,-1.6853e-15,1.0817,58.558,46.403,4.1318,0.00042437,-0.0058472,0.10381,52.952,0,0,0,106.04,2813.7,2147.2,0.78623,46.403,58.853,0.99745,-0.071338,0.00012852,-0.00012822,8.6742e-06,1,-0.071338,-0.99745,-4.9518e-07,-0.0024196,0.0020167,0.00066115,0.00063783,1.7802e-08,-2.3706e-07,0.0026508,0.00025831,-5.2477e-06,-3.2934e-09,-0.0024424,0.00066115,0.0020395,0.99745,-0.071338,3.8299e-05,-3.8223e-05,2.4262e-06,1,-0.071338,-0.99745,-3.0672e-07,-0.00020164,0.00028101,0.00017894,7.1273e-09,-9.8203e-08,6.9393e-05,-0.0022179,0.0017357,0.0004822,1.0675e-08,-1.3885e-07,0.00056844,1,1,28.2,1718.2,0,3000
-4.3925e-15,-4.3925e-15,1.0817,58.558,46.403,4.1318,0.00042437,-0.0058472,0.10381,52.952,0,0,0,106.04,2813.7,2147.2,0.78623,46.403,58.853,0.99745,-0.071338,0.00012852,-0.00012822,8.6742e-06,1,-0.071338,-0.99745,-4.9518e-07,-0.0024196,0.0020167,0.00066115,0.00063783,1.7802e-08,-2.3706e-07,0.0026508,0.00025831,-5.2477e-06,-3.2934e-09,-0.0024424,0.00066115,0.0020395,0.99745,-0.071338,3.8299e-05,-3.8223e-05,2.4262e-06,1,-0.071338,-0.99745,-3.0672e-07,-0.00020164,0.00028101,0.00017894,7.1273e-09,-9.8203e-08,6.9393e-05,-0.0022179,0.0017357,0.0004822,1.0675e-08,-1.3885e-07,0.00056844,1,1,28.26,1718.3,0,3000
-7.0941e-15,-7.0941e-15,1.0817,58.558,46.403,4.1318,0.00042437,-0.0058472,0.10381,52.952,0,0,0,106.04,2813.7,2147.2,0.78623,46.403,58.853,0.99745,-0.071338,0.00012852,-0.00012822,8.6742e-06,1,-0.071338,-0.99745,-4.9518e-07,-0.0024196,0.0020167,0.00066115,0.00063783,1.7802e-08,-2.3706e-07,0.0026508,0.00025831,-5.2477e-06,-3.2934e-09,-0.0024424,0.00066115,0.0020395,0.99745,-0.071338,3.8299e-05,-3.8223e-05,2.4262e-06,1,-0.071338,-0.99745,-3.0672e-07,-0.00020164,0.00028101,0.00017894,7.1273e-09,-9.8203e-08,6.9393e-05,-0.0022179,0.0017357,0.0004822,1.0675e-08,-1.3885e-07,0.00056844,1,1,28.32,1718.3,0,3000
-9.8013e-15,-9.8013e-15,1.0817,58.558,46.403,4.1318,0.00042437,-0.0058472,0.10381,52.952,0,0,0,106.04,2813.7,2147.2,0.78623,46.403,58.853,0.99745,-0.071338,0.00012852,-0.00012822,8.6742e-06,1,-0.071338,-0.99745,-4.9518e-07,-0.0024196,0.0020167,0.00066115,0.00063783,1.7802e-08,-2.3706e-07,0.0026508,0.00025831,-5.2477e-06,-3.2934e-09,-0.0024424,0.00066115,0.0020395,0.99745,-0.071338,3.8299e-05,-3.8223e-05,2.4262e-06,1,-0.071338,-0.99745,-3.0672e-07,-0.00020164,0.00028101,0.00017894,7.1273e-09,-9.8203e-08,6.9393e-05,-0.0022179,0.0017357,0.0004822,1.0675e-08,-1.3885e-07,0.00056844,1,1,28.38,1718.4,0,3000
-1.2503e-14,-1.2503e-14,1.0817,58.558,46.403,4.1318,0.00042437,-0.0058472,0.10381,52.952,0,0,0,106.04,2813.7,2147.2,0.78623,46.403,58.853,0.99745,-0.071338,0.00012852,-0.00012822,8.6742e-06,1,-0.071338,-0.99745,-4.9518e-07,-0.0024196,0.0020167,0.00066115,0.00063783,1.7802e-08,-2.3706e-07,0.0026508,0.00025831,-5.2477e-06,-3.2934e-09,-0.0024424,0.00066115,0.0020395,0.99745,-0.071338,3.8299e-05,-3.8223e-05,2.4262e-06,1,-0.071338,-0.99745,-3.0672e-07,-0.00020164,0.00028101,0.00017894,7.1273e-09,-9.8203e-08,6.9393e-05,-0.0022179,0.0017357,0.0004822,1.0675e-08,-1.3885e-07,0.00056844,1,1,28.44,1718.4,0,3000
-1.521e-14,-1.521e-14,1.0817,58.558,46.403,4.1318,0.00042437,-0.0058472,0.10381,52.952,0,0,0,106.04,2813.7,2147.2,0.78623,46.403,58.853,0.99745,-0.071338,0.00012852,-0.00012822,8.6742e-06,1,-0.071338,-0.99745,-4.9518e-07,-0.0024196,0.0020167,0.00066115,0.00063783,1.7802e-08,-2.3706e-07,0.0026508,0.00025831,-5.2477e-06,-3.2934e-09,-0.0024424,0.00066115,0.0020395,0.99745,-0.071338,3.8299e-05,-3.8223e-05,2.4262e-06,1,-0.071338,-0.99745,-3.0672e-07,-0.00020164,0.00028101,0.00017894,7.1273e-09,-9.8203e-08,6.9393e-05,-0.0022179,0.0017357,0.0004822,1.0675e-08,-1.3885e-07,0.00056844,1,1,28.5,1718.5,0,3000
-1.7917e-14,-1.7917e-14,1.0817,58.558,46.403,4.1318,0.00042437,-0.0058472,0.10381,52.952,0,0,0,106.04,2813.7,2147.2,0.78623,46.403,58.853,0.99745,-0.071338,0.00012852,-0.00012822,8.6742e-06,1,-0.071338,-0.99745,-4.9518e-07,-0.0024196,0.0020167,0.00066115,0.00063783,1.7802e-08,-2.3706e-07,0.0026508,0.00025831,-5.2477e-06,-3.2934e-09,-0.0024424,0.00066115,0.0020395,0.99745,-0.071338,3.8299e-05,-3.8223e-05,2.4262e-06,1,-0.071338,-0.99745,-3.0672e-07,-0.00020164,0.00028101,0.00017894,7.1273e-09,-9.8203e-08,6.9393e-05,-0.0022179,0.0017357,0.0004822,1.0675e-08,-1.3885e-07,0.00056844,1,1,28.56,1718.6,0,3000
-2.0619e-14,-2.0619e-14,1.0817,58.558,46.403,4.1318,0.00042437,-0.0058472,0.10381,52.952,0,0,0,106.04,2813.7,2147.2,0.78623,46.403,58.853,0.99745,-0.071338,0.00012852,-0.00012822,8.6742e-06,1,-0.071338,-0.99745,-4.9518e-07,-0.0024196,0.0020167,0.00066115,0.00063783,1.7802e-08,-2.3706e-07,0.0026508,0.00025831,-5.2477e-06,-3.2934e-09,-0.0024424,0.00066115,0.0020395,0.99745,-0.071338,3.8299e-05,-3.8223e-05,2.4262e-06,1,-0.071338,-0.99745,-3.0672e-07,-0.00020164,0.00028101,0.00017894,7.1273e-09,-9.8203e-08,6.9393e-05,-0.0022179,0.0017357,0.0004822,1.0675e-08,-1.3885e-07,0.00056844,1,1,28.62,1718.6,0,3000
-2.3326e-14,-2.3326e-14,1.0817,58.558,46.403,4.1318,0.00042437,-0.0058472,0.10381,52.952,0,0,0,106.04,2813.7,2147.2,0.78623,46.403,58.853,0.99745,-0.071338,0.00012852,-0.00012822,8.6742e-06,1,-0.071338,-0.99745,-4.9518e-07,-0.0024196,0.0020167,0.00066115,0.00063783,1.7802e-08,-2.3706e-07,0.0026508,0.00025831,-5.2477e-06,-3.2934e-09,-0.0024424,0.00066115,0.0020395,0.99745,-0.071338,3.8299e-05,-3.8223e-05,2.4262e-06,1,-0.071338,-0.99745,-3.0672e-07,-0.00020164,0.00028101,0.00017894,7.1273e-09,-9.8203e-08,6.9393e-05,-0.0022179,0.0017357,0.0004822,1.0675e-08,-1.3885e-07,0.00056844,1,1,28.68,1718.7,0,3000
-2.6028e-14,-2.6028e-14,1.0817,58.558,46.403,4.1318,0.00042437,-0.0058472,0.10381,52.952,0,0,0,106.04,2813.7,2147.2,0.78623,46.403,58.853,0.99745,-0.071338,0.00012852,-0.00012822,8.6742e-06,1,-0.071338,-0.99745,-4.9518e-07,-0.0024196,0.0020167,0.00066115,0.00063783,1.7802e-08,-2.3706e-07,0.0026508,0.00025831,-5.2477e-06,-3.2934e-09,-0.0024424,0.00066115,0.0020395,0.99745,-0.071338,3.8299e-05,-3.8223e-05,2.4262e-06,1,-0.071338,-0.99745,-3.0672e-07,-0.00020164,0.00028101,0.00017894,7.1273e-09,-9.8203e-08,6.9393e-05,-0.0022179,0.0017357,0.0004822,1.0675e-08,-1.3885e-07,0.00056844,1,1,28.74,1718.7,0,3000
-2.8735e-14,-2.8735e-14,1.0817,58.558,46.403,4.1318,0.00042437,-0.0058472,0.10381,52.952,0,0,0,106.04,2813.7,2147.2,0.78623,46.403,58.853,0.99745,-0.071338,0.00012852,-0.00012822,8.6742e-06,1,-0.071338,-0.99745,-4.9518e-07,-0.0024196,0.0020167,0.00066115,0.00063783,1.7802e-08,-2.3706e-07,0.0026508,0.00025831,-5.2477e-06,-3.2934e-09,-0.0024424,0.00066115,0.0020395,0.99745,-0.071338,3.8299e-05,-3.8223e-05,2.4262e-06,1,-0.071338,-0.99745,-3.0672e-07,-0.00020164,0.00028101,0.00017894,7.1273e-09,-9.8203e-08,6.9393e-05,-0.0022179,0.0017357,0.0004822,1.0675e-08,-1.3885e-07,0.00056844,1,1,28.8,1718.8,0,3000
-3.1436e-14,-3.1436e-14,1.0817,58.558,46.403,4.1318,0.00042437,-0.0058472,0.10381,52.952,0,0,0,106.04,2813.7,2147.2,0.78623,46.403,58.853,0.99745,-0.071338,0.00012852,-0.00012822,8.6742e-06,1,-0.071338,-0.99745,-4.9518e-07,-0.0024196,0.0020167,0.00066115,0.00063783,1.7802e-08,-2.3706e-07,0.0026508,0.00025831,-5.2477e-06,-3.2934e-09,-0.0024424,0.00066115,0.0020395,0.99745,-0.071338,3.8299e-05,-3.8223e-05,2.4262e-06,1,-0.071338,-0.99745,-3.0672e-07,-0.00020164,0.00028101,0.00017894,7.1273e-09,-9.8203e-08,6.9393e-05,-0.0022179,0.0017357,0.0004822,1.0675e-08,-1.3885e-07,0.00056844,1,1,28.86,1718.9,0,3000
-3.4144e-14,-3.4144e-14,1.0817,58.558,46.403,4.1318,0.00042437,-0.0058472,0.10381,52.952,0,0,0,106.04,2813.7,2147.2,0.78623,46.403,58.853,0.99745,-0.071338,0.00012852,-0.00012822,8.6742e-06,1,-0.071338,-0.99745,-4.9518e-07,-0.0024196,0.0020167,0.00066115,0.00063783,1.7802e-08,-2.3706e-07,0.0026508,0.00025831,-5.2477e-06,-3.2934e-09,-0.0024424,0.00066115,0.0020395,0.99745,-0.071338,3.8299e-05,-3.8223e-05,2.4262e-06,1,-0.071338,-0.99745,-3.0672e-07,-0.00020164,0.00028101,0.00017894,7.1273e-09,-9.8203e-08,6.9393e-05,-0.0022179,0.0017357,0.0004822,1.0675e-08,-1.3885e-07,0.00056844,1,1,28.92,1718.9,0,3000
-3.6845e-14,-3.6845e-14,1.0817,58.558,46.403,4.1318,0.00042437,-0.0058472,0.10381,52.952,0,0,0,106.04,2813.7,2147.2,0.78623,46.403,58.853,0.99745,-0.071338,0.00012852,-0.00012822,8.6742e-06,1,-0.071338,-0.99745,-4.9518e-07,-0.0024196,0.0020167,0.00066115,0.00063783,1.7802e-08,-2.3706e-07,0.0026508,0.00025831,-5.2477e-06,-3.2934e-09,-0.0024424,0.00066115,0.0020395,0.99745,-0.071338,3.8299e-05,-3.8223e-05,2.4262e-06,1,-0.071338,-0.99745,-3.0672e-07,-0.00020164,0.00028101,0.00017894,7.1273e-09,-9.8203e-08,6.9393e-05,-0.0022179,0.0017357,0.0004822,1.0675e-08,-1.3885e-07,0.00056844,1,1,28.98,1719,0,3000
-3.9197e-14,-3.9197e-14,1.0735,51.858,39.69,3.6508,0.0004134,-0.0056977,0.10354,46.359,0,0,0,92.621,2143.2,1680.5,0.81237,39.69,52.119,0.99745,-0.071338,0.00014694,-0.0001466,1.0011e-05,1,-0.071338,-0.99745,-4.7289e-07,-0.0024494,0.002014,0.00066106,0.00064173,1.6344e-08,-2.1881e-07,0.0026685,0.00022562,-5.3238e-06,-3.3291e-09,-0.0024724,0.00066106,0.0020369,0.99745,-0.071338,3.5012e-05,-3.4941e-05,2.2466e-06,1,-0.071338,-0.99745,-2.5178e-07,-0.00017504,0.00025142,0.00014924,6.9429e-09,-9.5693e-08,6.1314e-05,-0.0022744,0.0017625,0.00051182,9.401e-09,-1.2312e-07,0.00058041,1,1,29.04,1719,0,3000
-4.1366e-14,-4.1366e-14,1.0735,51.858,39.69,3.6508,0.0004134,-0.0056977,0.10354,46.359,0,0,0,92.621,2143.2,1680.5,0.81237,39.69,52.119,0.99745,-0.071338,0.00014694,-0.0001466,1.0011e-05,1,-0.071338,-0.99745,-4.7289e-07,-0.0024494,0.002014,0.00066106,0.00064173,1.6344e-08,-2.1881e-07,0.0026685,0.00022562,-5.3238e-06,-3.3291e-09,-0.0024724,0.00066106,0.0020369,0.99745,-0.071338,3.5012e-05,-3.4941e-05,2.2466e-06,1,-0.071338,-0.99745,-2.5178e-07,-0.00017504,0.00025142,0.00014924,6.9429e-09,-9.5693e-08,6.1314e-05,-0.0022744,0.0017625,0.00051182,9.401e-09,-1.2312e-07,0.00058041,1,1,29.1,1719.1,0,3000
-4.354e-14,-4.354e-14,1.0735,51.858,39.69,3.6508,0.0004134,-0.0056977,0.10354,46.359,0,0,0,92.621,2143.2,1680.5,0.81237,39.69,52.119,0.99745,-0.071338,0.00014694,-0.0001466,1.0011e-05,1,-0.071338,-0.99745,-4.7289e-07,-0.0024494,0.002014,0.00066106,0.00064173,1.6344e-08,-2.1881e-07,0.0026685,0.00022562,-5.3238e-06,-3.3291e-09,-0.0024724,0.00066106,0.0020369,0.99745,-0.071338,3.5012e-05,-3.4941e-05,2.2466e-06,1,-0.071338,-0.99745,-2.5178e-07,-0.00017504,0.00025142,0.00014924,6.9429e-09,-9.5693e-08,6.1314e-05,-0.0022744,0.0017625,0.00051182,9.401e-09,-1.2312e-07,0.00058041,1,1,29.16,1719.2,0,3000
-4.5709e-14,-4.5709e-14,1.0735,51.858,39.69,3.6508,0.0004134,-0.0056977,0.10354,46.359,0,0,0,92.621,2143.2,1680.5,0.81237,39.69,52.119,0.99745,-0.071338,0.00014694,-0.0001466,1.0011e-05,1,-0.071338,-0.99745,-4.7289e-07,-0.0024494,0.002014,0.00066106,0.00064173,1.6344e-08,-2.1881e-07,0.0026685,0.00022562,-5.3238e-06,-3.3291e-09,-0.0024724,0.00066106,0.0020369,0.99745,-0.071338,3.5012e-05,-3.4941e-05,2.2466e-06,1,-0.071338,-0.99745,-2.5178e-07,-0.00017504,0.00025142,0.00014924,6.9429e-09,-9.5693e-08,6.1314e-05,-0.0022744,0.0017625,0.00051182,9.401e-09,-1.2312e-07,0.00058041,1,1,29.22,1719.2,0,3000
-4.7883e-14,-4.7883e-14,1.0735,51.858,39.69,3.6508,0.0004134,-0.0056977,0.10354,46.359,0,0,0,92.621,2143.2,1680.5,0.81237,39.69,52.119,0.99745,-0.071338,0.00014694,-0.0001466,1.0011e-05,1,-0.071338,-0.99745,-4.7289e-07,-0.0024494,0.002014,0.00066106,0.00064173,1.6344e-08,-2.1881e-07,0.0026685,0.00022562,-5.3238e-06,-3.3291e-09,-0.0024724,0.00066106,0.0020369,0.99745,-0.071338,3.5012e-05,-3.4941e-05,2.2466e-06,1,-0.071338,-0.99745,-2.5178e-07,-0.00017504,0.00025142,0.00014924,6.9429e-09,-9.5693e-08,6.1314e-05,-0.0022744,0.0017625,0.00051182,9.401e-09,-1.2312e-07,0.00058041,1,1,29.28,1719.3,0,3000
-5.0052e-14,-5.0052e-14,1.0735,51.858,39.69,3.6508,0.0004134,-0.0056977,0.10354,46.359,0,0,0,92.621,2143.2,1680.5,0.81237,39.69,52.119,0.99745,-0.071338,0.00014694,-0.0001466,1.0011e-05,1,-0.071338,-0.99745,-4.7289e-07,-0.0024494,0.002014,0.00066106,0.00064173,1.6344e-08,-2.1881e-07,0.0026685,0.00022562,-5.3238e-06,-3.3291e-09,-0.0024724,0.00066106,0.0020369,0.99745,-0.071338,3.5012e-05,-3.4941e-05,2.2466e-06,1,-0.071338,-0.99745,-2.5178e-07,-0.00017504,0.00025142,0.00014924,6.9429e-09,-9.5693e-08,6.1314e-05,-0.0022744,0.0017625,0.00051182,9.401e-09,-1.2312e-07,0.00058041,1,1,29.34,1719.3,0,3000
-5.2226e-14,-5.2226e-14,1.0735,51.858,39.69,3.6508,0.0004134,-0.0056977,0.10354,46.359,0,0,0,92.621,2143.2,1680.5,0.81237,39.69,52.119,0.99745,-0.071338,0.00014694,-0.0001466,1.0011e-05,1,-0.071338,-0.99745,-4.7289e-07,-0.0024494,0.002014,0.00066106,0.00064173,1.6344e-08,-2.1881e-07,0.0026685,0.00022562,-5.3238e-06,-3.3291e-09,-0.0024724,0.00066106,0.0020369,0.99745,-0.071338,3.5012e-05,-3.4941e-05,2.2466e-06,1,-0.071338,-0.99745,-2.5178e-07,-0.00017504,0.00025142,0.00014924,6.9429e-09,-9.5693e-08,6.1314e-05,-0.0022744,0.0017625,0.00051182,9.401e-09,-1.2312e-07,0.00058041,1,1,29.4,1719.4,0,3000
-5.4395e-14,-5.4395e-14,1.0735,51.858,39.69,3.6508,0.0004134,-0.0056977,0.10354,46.359,0,0,0,92.621,2143.2,1680.5,0.81237,39.69,52.119,0.99745,-0.071338,0.00014694,-0.0001466,1.0011e-05,1,-0.071338,-0.99745,-4.7289e-07,-0.0024494,0.002014,0.00066106,0.00064173,1.6344e-08,-2.1881e-07,0.0026685,0.00022562,-5.3238e-06,-3.3291e-09,-0.0024724,0.00066106,0.0020369,0.99745,-0.071338,3.5012e-05,-3.4941e-05,2.2466e-06,1,-0.071338,-0.99745,-2.5178e-07,-0.00017504,0.00025142,0.00014924,6.9429e-09,-9.5693e-08,6.1314e-05,-0.0022744,0.0017625,0.00051182,9.401e-09,-1.2312e-07,0.00058041,1,1,29.46,1719.5,0,3000
-5.6569e-14,-5.6569e-14,1.0735,51.858,39.69,3.6508,0.0004134,-0.0056977,0.10354,46.359,0,0,0,92.621,2143.2,1680.5,0.81237,39.69,52.119,0.99745,-0.071338,0.00014694,-0.0001466,1.0011e-05,1,-0.071338,-0.99745,-4.7289e-07,-0.0024494,0.002014,0.00066106,0.00064173,1.6344e-08,-2.1881e-07,0.0026685,0.00022562,-5.3238e-06,-3.3291e-09,-0.0024724,0.00066106,0.0020369,0.99745,-0.071338,3.5012e-05,-3.4941e-05,2.2466e-06,1,-0.071338,-0.99745,-2.5178e-07,-0.00017504,0.00025142,0.00014924,6.9429e-09,-9.5693e-08,6.1314e-05,-0.0022744,0.0017625,0.00051182,9.401e-09,-1.2312e-07,0.00058041,1,1,29.52,1719.5,0,3000
-5.8738e-14,-5.8738e-14,1.0735,51.858,39.69,3.6508,0.0004134,-0.0056977,0.10354,46.359,0,0,0,92.621,2143.2,1680.5,0.81237,39.69,52.119,0.99745,-0.071338,0.00014694,-0.0001466,1.0011e-05,1,-0.071338,-0.99745,-4.7289e-07,-0.0024494,0.002014,0.00066106,0.00064173,1.6344e-08,-2.1881e-07,0.0026685,0.00022562,-5.3238e-06,-3.3291e-09,-0.0024724,0.00066106,0.0020369,0.99745,-0.071338,3.5012e-05,-3.4941e-05,2.2466e-06,1,-0.071338,-0.99745,-2.5178e-07,-0.00017504,0.00025142,0.00014924,6.9429e-09,-9.5693e-08,6.1314e-05,-0.0022744,0.0017625,0.00051182,9.401e-09,-1.2312e-07,0.00058041,1,1,29.58,1719.6,0,3000
-6.0912e-14,-6.0912e-14,1.0735,51.858,39.69,3.6508,0.0004134,-0.0056977,0.10354,46.359,0,0,0,92.621,2143.2,1680.5,0.81237,39.69,52.119,0.99745,-0.071338,0.00014694,-0.0001466,1.0011e-05,1,-0.071338,-0.99745,-4.7289e-07,-0.0024494,0.002014,0.00066106,0.00064173,1.6344e-08,-2.1881e-07,0.0026685,0.00022562,-5.3238e-06,-3.3291e-09,-0.0024724,0.00066106,0.0020369,0.99745,-0.071338,3.5012e-05,-3.4941e-05,2.2466e-06,1,-0.071338,-0.99745,-2.5178e-07,-0.00017504,0.00025142,0.00014924,6.9429e-09,-9.5693e-08,6.1314e-05,-0.0022744,0.0017625,0.00051182,9.401e-09,-1.2312e-07,0.00058041,1,1,29.64,1719.6,0,3000
-6.3081e-14,-6.3081e-14,1.0735,51.858,39.69,3.6508,0.0004134,-0.0056977,0.10354,46.359,0,0,0,92.621,2143.2,1680.5,0.81237,39.69,52.119,0.99745,-0.071338,0.00014694,-0.0001466,1.0011e-05,1,-0.071338,-0.99745,-4.7289e-07,-0.0024494,0.002014,0.00066106,0.00064173,1.6344e-08,-2.1881e-07,0.0026685,0.00022562,-5.3238e-06,-3.3291e-09,-0.0024724,0.00066106,0.0020369,0.99745,-0.071338,3.5012e-05,-3.4941e-05,2.2466e-06,1,-0.071338,-0.99745,-2.5178e-07,-0.00017504,0.00025142,0.00014924,6.9429e-09,-9.5693e-08,6.1314e-05,-0.0022744,0.0017625,0.00051182,9.401e-09,-1.2312e-07,0.00058041,1,1,29.7,1719.7,0,3000
-6.5255e-14,-6.5255e-14,1.0735,51.858,39.69,3.6508,0.0004134,-0.0056977,0.10354,46.359,0,0,0,92.621,2143.2,1680.5,0.81237,39.69,52.119,0.99745,-0.071338,0.00014694,-0.0001466,1.0011e-05,1,-0.071338,-0.99745,-4.7289e-07,-0.0024494,0.002014,0.00066106,0.00064173,1.6344e-08,-2.1881e-07,0.0026685,0.00022562,-5.3238e-06,-3.3291e-09,-0.0024724,0.00066106,0.0020369,0.99745,-0.071338,3.5012e-05,-3.4941e-05,2.2466e-06,1,-0.071338,-0.99745,-2.5178e-07,-0.00017504,0.00025142,0.00014924,6.9429e-09,-9.5693e-08,6.1314e-05,-0.0022744,0.0017625,0.00051182,9.401e-09,-1.2312e-07,0.00058041,1,1,29.76,1719.8,0,3000
-6.7424e-14,-6.7424e-14,1.0735,51.858,39.69,3.6508,0.0004134,-0.0056977,0.10354,46.359,0,0,0,92.621,2143.2,1680.5,0.81237,39.69,52.119,0.99745,-0.071338,0.00014694,-0.0001466,1.0011e-05,1,-0.071338,-0.99745,-4.7289e-07,-0.0024494,0.002014,0.00066106,0.00064173,1.6344e-08,-2.1881e-07,0.0026685,0.00022562,-5.3238e-06,-3.3291e-09,-0.0024724,0.00066106,0.0020369,0.99745,-0.071338,3.5012e-05,-3.4941e-05,2.2466e-06,1,-0.071338,-0.99745,-2.5178e-07,-0.00017504,0.00025142,0.00014924,6.9429e-09,-9.5693e-08,6.1314e-05,-0.0022744,0.0017625,0.00051182,9.401e-09,-1.2312e-07,0.00058041,1,1,29.82,1719.8,0,3000
-6.9598e-14,-6.9598e-14,1.0735,51.858,39.69,3.6508,0.0004134,-0.0056977,0.10354,46.359,0,0,0,92.621,2143.2,1680.5,0.81237,39.69,52.119,0.99745,-0.071338,0.00014694,-0.0001466,1.0011e-05,1,-0.071338,-0.99745,-4.7289e-07,-0.0024494,0.002014,0.00066106,0.00064173,1.6344e-08,-2.1881e-07,0.0026685,0.00022562,-5.3238e-06,-3.3291e-09,-0.0024724,0.00066106,0.0020369,0.99745,-0.071338,3.5012e-05,-3.4941e-05,2.2466e-06,1,-0.071338,-0.99745,-2.5178e-07,-0.00017504,0.00025142,0.00014924,6.9429e-09,-9.5693e-08,6.1314e-05,-0.0022744,0.0017625,0.00051182,9.401e-09,-1.2312e-07,0.00058041,1,1,29.88,1719.9,0,3000
-7.1767e-14,-7.1767e-14,1.0735,51.858,39.69,3.6508,0.0004134,-0.0056977,0.10354,46.359,0,0,0,92.621,2143.2,1680.5,0.81237,39.69,52.119,0.99745,-0.071338,0.00014694,-0.0001466,1.0011e-05,1,-0.071338,-0.99745,-4.7289e-07,-0.0024494,0.002014,0.00066106,0.00064173,1.6344e-08,-2.1881e-07,0.0026685,0.00022562,-5.3238e-06,-3.3291e-09,-0.0024724,0.00066106,0.0020369,0.99745,-0.071338,3.5012e-05,-3.4941e-05,2.2466e-06,1,-0.071338,-0.99745,-2.5178e-07,-0.00017504,0.00025142,0.00014924,6.9429e-09,-9.5693e-08,6.1314e-05,-0.0022744,0.0017625,0.00051182,9.401e-09,-1.2312e-07,0.00058041,1,1,29.94,1719.9,0,3000
-7.3941e-14,-7.3941e-14,1.0613,45.158,32.971,3.17,0.00040273,-0.0055527,0.10391,39.822,0,0,0,79.19,1561.8,1248.8,0.83456,32.971,45.385,0.99745,-0.071338,0.00017324,-0.00017283,1.191e-05,1,-0.071338,-0.99745,-4.4998e-07,-0.0024793,0.0020112,0.00066098,0.00064562,1.4957e-08,-2.0155e-07,0.0026863,0.0001929,-5.3998e-06,-3.3647e-09,-0.0025023,0.00066098,0.0020343,0.99745,-0.071338,3.1944e-05,-3.1877e-05,2.0824e-06,1,-0.071338,-0.99745,-1.9691e-07,-0.00014845,0.00022185,0.00011951,6.7638e-09,-9.3257e-08,5.324e-05,-0.0023308,0.0017893,0.00054148,8.1932e-09,-1.0829e-07,0.00059238,1,1,30,1720,0,3000
-7.7301e-14,-7.7301e-14,1.0613,45.158,32.971,3.17,0.00040273,-0.0055527,0.10391,39.822,0,0,0,79.19,1561.8,1248.8,0.83456,32.971,45.385,0.99745,-0.071338,0.00017324,-0.00017283,1.191e-05,1,-0.071338,-0.99745,-4.4998e-07,-0.0024793,0.0020112,0.00066098,0.00064562,1.4957e-08,-2.0155e-07,0.0026863,0.0001929,-5.3998e-06,-3.3647e-09,-0.0025023,0.00066098,0.0020343,0.99745,-0.071338,3.1944e-05,-3.1877e-05,2.0824e-06,1,-0.071338,-0.99745,-1.9691e-07,-0.00014845,0.00022185,0.00011951,6.7638e-09,-9.3257e-08,5.324e-05,-0.0023308,0.0017893,0.00054148,8.1932e-09,-1.0829e-07,0.00059238,1,1,30.06,1720.1,0,3000
-8.0655e-14,-8.0655e-14,1.0613,45.158,32.971,3.17,0.00040273,-0.0055527,0.10391,39.822,0,0,0,79.19,1561.8,1248.8,0.83456,32.971,45.385,0.99745,-0.071338,0.00017324,-0.00017283,1.191e-05,1,-0.071338,-0.99745,-4.4998e-07,-0.0024793,0.0020112,0.00066098,0.00064562,1.4957e-08,-2.0155e-07,0.0026863,0.0001929,-5.3998e-06,-3.3647e-09,-0.0025023,0.00066098,0.0020343,0.99745,-0.071338,3.1944e-05,-3.1877e-05,2.0824e-06,1,-0.071338,-0.99745,-1.9691e-07,-0.00014845,0.00022185,0.00011951,6.7638e-09,-9.3257e-08,5.324e-05,-0.0023308,0.0017893,0.00054148,8.1932e-09,-1.0829e-07,0.00059238,1,1,30.12,1720.1,0,3000
-8.4016e-14,-8.4016e-14,1.0613,45.158,32.971,3.17,0.00040273,-0.0055527,0.10391,39.822,0,0,0,79.19,1561.8,1248.8,0.83456,32.971,45.385,0.99745,-0.071338,0.00017324,-0.00017283,1.191e-05,1,-0.071338,-0.99745,-4.4998e-07,-0.0024793,0.0020112,0.00066098,0.00064562,1.4957e-08,-2.0155e-07,0.0026863,0.0001929,-5.3998e-06,-3.3647e-09,-0.0025023,0.00066098,0.0020343,0.99745,-0.071338,3.1944e-05,-3.1877e-05,2.0824e-06,1,-0.071338,-0.99745,-1.9691e-07,-0.00014845,0.00022185,0.00011951,6.7638e-09,-9.3257e-08,5.324e-05,-0.0023308,0.0017893,0.00054148,8.1932e-09,-1.0829e-07,0.00059238,1,1,30.18,1720.2,0,3000
-8.737e-14,-8.737e-14,1.0613,45.158,32.971,3.17,0.00040273,-0.0055527,0.10391,39.822,0,0,0,79.19,1561.8,1248.8,0.83456,32.971,45.385,0.99745,-0.071338,0.00017324,-0.00017283,1.191e-05,1,-0.071338,-0.99745,-4.4998e-07,-0.0024793,0.0020112,0.00066098,0.00064562,1.4957e-08,-2.0155e-07,0.0026863,0.0001929,-5.3998e-06,-3.3647e-09,-0.0025023,0.00066098,0.0020343,0.99745,-0.071338,3.1944e-05,-3.1877e-05,2.0824e-06,1,-0.071338,-0.99745,-1.9691e-07,-0.00014845,0.00022185,0.00011951,6.7638e-09,-9.3257e-08,5.324e-05,-0.0023308,0.0017893,0.00054148,8.1932e-09,-1.0829e-07,0.00059238,1,1,30.24,1720.2,0,3000
-9.073e-14,-9.073e-14,1.0613,45.158,32.971,3.17,0.00040273,-0.0055527,0.10391,39.822,0,0,0,79.19,1561.8,1248.8,0.83456,32.971,45.385,0.99745,-0.071338,0.00017324,-0.00017283,1.191e-05,1,-0.071338,-0.99745,-4.4998e-07,-0.0024793,0.0020112,0.00066098,0.00064562,1.4957e-08,-2.0155e-07,0.0026863,0.0001929,-5.3998e-06,-3.3647e-09,-0.0025023,0.00066098,0.0020343,0.99745,-0.071338,3.1944e-05,-3.1877e-05,2.0824e-06,1,-0.071338,-0.99745,-1.9691e-07,-0.00014845,0.00022185,0.00011951,6.7638e-09,-9.3257e-08,5.324e-05,-0.0023308,0.0017893,0.00054148,8.1932e-09,-1.0829e-07,0.00059238,1,1,30.3,1720.3,0,3000
-9.4084e-14,-9.4084e-14,1.0613,45.158,32.971,3.17,0.00040273,-0.0055527,0.10391,39.822,0,0,0,79.19,1561.8,1248.8,0.83456,32.971,45.385,0.99745,-0.071338,0.00017324,-0.00017283,1.191e-05,1,-0.071338,-0.99745,-4.4998e-07,-0.0024793,0.0020112,0.00066098,0.00064562,1.4957e-08,-2.0155e-07,0.0026863,0.0001929,-5.3998e-06,-3.3647e-09,-0.0025023,0.00066098,0.0020343,0.99745,-0.071338,3.1944e-05,-3.1877e-05,2.0824e-06,1,-0.071338,-0.99745,-1.9691e-07,-0.00014845,0.00022185,0.00011951,6.7638e-09,-9.3257e-08,5.324e-05,-0.0023308,0.0017893,0.00054148,8.1932e-09,-1.0829e-07,0.00059238,1,1,30.36,1720.4,0,3000
-9.7445e-14,-9.7445e-14,1.0613,45.158,32.971,3.17,0.00040273,-0.0055527,0.10391,39.822,0,0,0,79.19,1561.8,1248.8,0.83456,32.971,45.385,0.99745,-0.071338,0.00017324,-0.00017283,1.191e-05,1,-0.071338,-0.99745,-4.4998e-07,-0.0024793,0.0020112,0.00066098,0.00064562,1.4957e-08,-2.0155e-07,0.0026863,0.0001929,-5.3998e-06,-3.3647e-09,-0.0025023,0.00066098,0.0020343,0.99745,-0.071338,3.1944e-05,-3.1877e-05,2.0824e-06,1,-0.071338,-0.99745,-1.9691e-07,-0.00014845,0.00022185,0.00011951,6.7638e-09,-9.3257e-08,5.324e-05,-0.0023308,0.0017893,0.00054148,8.1932e-09,-1.0829e-07,0.00059238,1,1,30.42,1720.4,0,3000
-1.008e-13,-1.008e-13,1.0613,45.158,32.971,3.17,0.00040273,-0.0055527,0.10391,39.822,0,0,0,79.19,1561.8,1248.8,0.83456,32.971,45.385,0.99745,-0.071338,0.00017324,-0.00017283,1.191e-05,1,-0.071338,-0.99745,-4.4998e-07,-0.0024793,0.0020112,0.00066098,0.00064562,1.4957e-08,-2.0155e-07,0.0026863,0.0001929,-5.3998e-06,-3.3647e-09,-0.0025023,0.00066098,0.0020343,0.99745,-0.071338,3.1944e-05,-3.1877e-05,2.0824e-06,1,-0.071338,-0.99745,-1.9691e-07,-0.00014845,0.00022185,0.00011951,6.7638e-09,-9.3257e-08,5.324e-05,-0.0023308,0.0017893,0.00054148,8.1932e-09,-1.0829e-07,0.00059238,1,1,30.48,1720.5,0,3000
-1.0416e-13,-1.0416e-13,1.0613,45.158,32.971,3.17,0.00040273,-0.0055527,0.10391,39.822,0,0,0,79.19,1561.8,1248.8,0.83456,32.971,45.385,0.99745,-0.071338,0.00017324,-0.00017283,1.191e-05,1,-0.071338,-0.99745,-4.4998e-07,-0.0024793,0.0020112,0.00066098,0.00064562,1.4957e-08,-2.0155e-07,0.0026863,0.0001929,-5.3998e-06,-3.3647e-09,-0.0025023,0.00066098,0.0020343,0.99745,-0.071338,3.1944e-05,-3.1877e-05,2.0824e-06,1,-0.071338,-0.99745,-1.9691e-07,-0.00014845,0.00022185,0.00011951,6.7638e-09,-9.3257e-08,5.324e-05,-0.0023308,0.0017893,0.00054148,8.1932e-09,-1.0829e-07,0.00059238,1,1,30.54,1720.5,0,3000
-1.0751e-13,-1.0751e-13,1.0613,45.158,32.971,3.17,0.00040273,-0.0055527,0.10391,39.822,0,0,0,79.19,1561.8,1248.8,0.83456,32.971,45.385,0.99745,-0.071338,0.00017324,-0.00017283,1.191e-05,1,-0.071338,-0.99745,-4.4998e-07,-0.0024793,0.0020112,0.00066098,0.00064562,1.4957e-08,-2.0155e-07,0.0026863,0.0001929,-5.3998e-06,-3.3647e-09,-0.0025023,0.00066098,0.0020343,0.99745,-0.071338,3.1944e-05,-3.1877e-05,2.0824e-06,1,-0.071338,-0.99745,-1.9691e-07,-0.00014845,0.00022185,0.00011951,6.7638e-09,-9.3257e-08,5.324e-05,-0.0023308,0.0017893,0.00054148,8.1932e-09,-1.0829e-07,0.00059238,1,1,30.6,1720.6,0,3000
-1.1087e-13,-1.1087e-13,1.0613,45.158,32.971,3.17,0.00040273,-0.0055527,0.10391,39.822,0,0,0,79.19,1561.8,1248.8,0.83456,32.971,45.385,0.99745,-0.071338,0.00017324,-0.00017283,1.191e-05,1,-0.071338,-0.99745,-4.4998e-07,-0.0024793,0.0020112,0.00066098,0.00064562,1.4957e-08,-2.0155e-07,0.0026863,0.0001929,-5.3998e-06,-3.3647e-09,-0.0025023,0.00066098,0.0020343,0.99745,-0.071338,3.1944e-05,-3.1877e-05,2.0824e-06,1,-0.071338,-0.99745,-1.9691e-07,-0.00014845,0.00022185,0.00011951,6.7638e-09,-9.3257e-08,5.324e-05,-0.0023308,0.0017893,0.00054148,8.1932e-09,-1.0829e-07,0.00059238,1,1,30.66,1720.7,0,3000
-1.1423e-13,-1.1423e-13,1.0613,45.158,32.971,3.17,0.00040273,-0.0055527,0.10391,39.822,0,0,0,79.19,1561.8,1248.8,0.83456,32.971,45.385,0.99745,-0.071338,0.00017324,-0.00017283,1.191e-05,1,-0.071338,-0.99745,-4.4998e-07,-0.0024793,0.0020112,0.00066098,0.00064562,1.4957e-08,-2.0155e-07,0.0026863,0.0001929,-5.3998e-06,-3.3647e-09,-0.0025023,0.00066098,0.0020343,0.99745,-0.071338,3.1944e-05,-3.1877e-05,2.0824e-06,1,-0.071338,-0.99745,-1.9691e-07,-0.00014845,0.00022185,0.00011951,6.7638e-09,-9.3257e-08,5.324e-05,-0.0023308,0.0017893,0.00054148,8.1932e-09,-1.0829e-07,0.00059238,1,1,30.72,1720.7,0,3000
-1.1759e-13,-1.1759e-13,1.0613,45.158,32.971,3.17,0.00040273,-0.0055527,0.10391,39.822,0,0,0,79.19,1561.8,1248.8,0.83456,32.971,45.385,0.99745,-0.071338,0.00017324,-0.00017283,1.191e-05,1,-0.071338,-0.99745,-4.4998e-07,-0.0024793,0.0020112,0.00066098,0.00064562,1.4957e-08,-2.0155e-07,0.0026863,0.0001929,-5.3998e-06,-3.3647e-09,-0.0025023,0.00066098,0.0020343,0.99745,-0.071338,3.1944e-05,-3.1877e-05,2.0824e-06,1,-0.071338,-0.99745,-1.9691e-07,-0.00014845,0.00022185,0.00011951,6.7638e-09,-9.3257e-08,5.324e-05,-0.0023308,0.0017893,0.00054148,8.1932e-09,-1.0829e-07,0.00059238,1,1,30.78,1720.8,0,3000
-1.2094e-13,-1.2094e-13,1.0613,45.158,32.971,3.17,0.00040273,-0.0055527,0.10391,39.822,0,0,0,79.19,1561.8,1248.8,0.83456,32.971,45.385,0.99745,-0.071338,0.00017324,-0.00017283,1.191e-05,1,-0.071338,-0.99745,-4.4998e-07,-0.0024793,0.0020112,0.00066098,0.00064562,1.4957e-08,-2.0155e-07,0.0026863,0.0001929,-5.3998e-06,-3.3647e-09,-0.0025023,0.00066098,0.0020343,0.99745,-0.071338,3.1944e-05,-3.1877e-05,2.0824e-06,1,-0.071338,-0.99745,-1.9691e-07,-0.00014845,0.00022185,0.00011951,6.7638e-09,-9.3257e-08,5.324e-05,-0.0023308,0.0017893,0.00054148,8.1932e-09,-1.0829e-07,0.00059238,1,1,30.84,1720.8,0,3000
-1.243e-13,-1.243e-13,1.0613,45.158,32.971,3.17,0.00040273,-0.0055527,0.10391,39.822,0,0,0,79.19,1561.8,1248.8,0.83456,32.971,45.385,0.99745,-0.071338,0.00017324,-0.00017283,1.191e-05,1,-0.071338,-0.99745,-4.4998e-07,-0.0024793,0.0020112,0.00066098,0.00064562,1.4957e-08,-2.0155e-07,0.0026863,0.0001929,-5.3998e-06,-3.3647e-09,-0.0025023,0.00066098,0.0020343,0.99745,-0.071338,3.1944e-05,-3.1877e-05,2.0824e-06,1,-0.071338,-0.99745,-1.9691e-07,-0.00014845,0.00022185,0.00011951,6.7638e-09,-9.3257e-08,5.324e-05,-0.0023308,0.0017893,0.00054148,8.1932e-09,-1.0829e-07,0.00059238,1,1,30.9,1720.9,0,3000
-1.2766e-13,-1.2766e-13,1.0613,45.158,32.971,3.17,0.00040273,-0.0055527,0.10391,39.822,0,0,0,79.19,1561.8,1248.8,0.83456,32.971,45.385,0.99745,-0.071338,0.00017324,-0.00017283,1.191e-05,1,-0.071338,-0.99745,-4.4998e-07,-0.0024793,0.0020112,0.00066098,0.00064562,1.4957e-08,-2.0155e-07,0.0026863,0.0001929,-5.3998e-06,-3.3647e-09,-0.0025023,0.00066098,0.0020343,0.99745,-0.071338,3.1944e-05,-3.1877e-05,2.0824e-06,1,-0.071338,-0.99745,-1.9691e-07,-0.00014845,0.00022185,0.00011951,6.7638e-09,-9.3257e-08,5.324e-05,-0.0023308,0.0017893,0.00054148,8.1932e-09,-1.0829e-07,0.00059238,1,1,30.96,1721,0,3000
-1.2684e-13,-1.2684e-13,1.0452,38.46,26.248,2.6896,0.00039239,-0.0054123,0.10494,33.374,0,0,0,65.753,1069.9,865.22,0.85281,26.248,38.652,0.99745,-0.071337,0.00021368,-0.00021317,1.4818e-05,1,-0.071337,-0.99745,-4.2635e-07,-0.0025091,0.0020084,0.0006609,0.00064951,1.3638e-08,-1.8523e-07,0.0027041,0.00016017,-5.4756e-06,-3.4001e-09,-0.0025323,0.0006609,0.0020316,0.99745,-0.071338,2.9081e-05,-2.9018e-05,1.9328e-06,1,-0.071338,-0.99745,-1.4217e-07,-0.00012189,0.0001923,8.9755e-05,6.5901e-09,-9.0899e-08,4.5172e-05,-0.0023872,0.0018161,0.00057114,7.0481e-09,-9.4328e-08,0.00060434,1,1,31.02,1721,0,3000
-1.1768e-13,-1.1768e-13,1.0452,38.46,26.248,2.6896,0.00039239,-0.0054123,0.10494,33.374,0,0,0,65.753,1069.9,865.22,0.85281,26.248,38.652,0.99745,-0.071337,0.00021368,-0.00021317,1.4818e-05,1,-0.071337,-0.99745,-4.2635e-07,-0.0025091,0.0020084,0.0006609,0.00064951,1.3638e-08,-1.8523e-07,0.0027041,0.00016017,-5.4756e-06,-3.4001e-09,-0.0025323,0.0006609,0.0020316,0.99745,-0.071338,2.9081e-05,-2.9018e-05,1.9328e-06,1,-0.071338,-0.99745,-1.4217e-07,-0.00012189,0.0001923,8.9755e-05,6.5901e-09,-9.0899e-08,4.5172e-05,-0.0023872,0.0018161,0.00057114,7.0481e-09,-9.4328e-08,0.00060434,1,1,31.08,1721.1,0,3000
-1.0851e-13,-1.0851e-13,1.0452,38.46,26.248,2.6896,0.00039239,-0.0054123,0.10494,33.374,0,0,0,65.753,1069.9,865.22,0.85281,26.248,38.652,0.99745,-0.071337,0.00021368,-0.00021317,1.4818e-05,1,-0.071337,-0.99745,-4.2635e-07,-0.0025091,0.0020084,0.0006609,0.00064951,1.3638e-08,-1.8523e-07,0.0027041,0.00016017,-5.4756e-06,-3.4001e-09,-0.0025323,0.0006609,0.0020316,0.99745,-0.071338,2.9081e-05,-2.9018e-05,1.9328e-06,1,-0.071338,-0.99745,-1.4217e-07,-0.00012189,0.0001923,8.9755e-05,6.5901e-09,-9.0899e-08,4.5172e-05,-0.0023872,0.0018161,0.00057114,7.0481e-09,-9.4328e-08,0.00060434,1,1,31.14,1721.1,0,3000
-9.935e-14,-9.935e-14,1.0452,38.46,26.248,2.6896,0.00039239,-0.0054123,0.10494,33.374,0,0,0,65.753,1069.9,865.22,0.85281,26.248,38.652,0.99745,-0.071337,0.00021368,-0.00021317,1.4818e-05,1,-0.071337,-0.99745,-4.2635e-07,-0.0025091,0.0020084,0.0006609,0.00064951,1.3638e-08,-1.8523e-07,0.0027041,0.00016017,-5.4756e-06,-3.4001e-09,-0.0025323,0.0006609,0.0020316,0.99745,-0.071338,2.9081e-05,-2.9018e-05,1.9328e-06,1,-0.071338,-0.99745,-1.4217e-07,-0.00012189,0.0001923,8.9755e-05,6.5901e-09,-9.0899e-08,4.5172e-05,-0.0023872,0.0018161,0.00057114,7.0481e-09,-9.4328e-08,0.00060434,1,1,31.2,1721.2,0,3000
-9.0175e-14,-9.0175e-14,1.0452,38.46,26.248,2.6896,0.00039239,-0.0054123,0.10494,33.374,0,0,0,65.753,1069.9,865.22,0.85281,26.248,38.652,0.99745,-0.071337,0.00021368,-0.00021317,1.4818e-05,1,-0.071337,-0.99745,-4.2635e-07,-0.0025091,0.0020084,0.0006609,0.00064951,1.3638e-08,-1.8523e-07,0.0027041,0.00016017,-5.4756e-06,-3.4001e-09,-0.0025323,0.0006609,0.0020316,0.99745,-0.071338,2.9081e-05,-2.9018e-05,1.9328e-06,1,-0.071338,-0.99745,-1.4217e-07,-0.00012189,0.0001923,8.9755e-05,6.5901e-09,-9.0899e-08,4.5172e-05,-0.0023872,0.0018161,0.00057114,7.0481e-09,-9.4328e-08,0.00060434,1,1,31.26,1721.3,0,3000
-8.1019e-14,-8.1019e-14,1.0452,38.46,26.248,2.6896,0.00039239,-0.0054123,0.10494,33.374,0,0,0,65.753,1069.9,865.22,0.85281,26.248,38.652,0.99745,-0.071337,0.00021368,-0.00021317,1.4818e-05,1,-0.071337,-0.99745,-4.2635e-07,-0.0025091,0.0020084,0.0006609,0.00064951,1.3638e-08,-1.8523e-07,0.0027041,0.00016017,-5.4756e-06,-3.4001e-09,-0.0025323,0.0006609,0.0020316,0.99745,-0.071338,2.9081e-05,-2.9018e-05,1.9328e-06,1,-0.071338,-0.99745,-1.4217e-07,-0.00012189,0.0001923,8.9755e-05,6.5901e-09,-9.0899e-08,4.5172e-05,-0.0023872,0.0018161,0.00057114,7.0481e-09,-9.4328e-08,0.00060434,1,1,31.32,1721.3,0,3000
-7.1844e-14,-7.1844e-14,1.0452,38.46,26.248,2.6896,0.00039239,-0.0054123,0.10494,33.374,0,0,0,65.753,1069.9,865.22,0.85281,26.248,38.652,0.99745,-0.071337,0.00021368,-0.00021317,1.4818e-05,1,-0.071337,-0.99745,-4.2635e-07,-0.0025091,0.0020084,0.0006609,0.00064951,1.3638e-08,-1.8523e-07,0.0027041,0.00016017,-5.4756e-06,-3.4001e-09,-0.0025323,0.0006609,0.0020316,0.99745,-0.071338,2.9081e-05,-2.9018e-05,1.9328e-06,1,-0.071338,-0.99745,-1.4217e-07,-0.00012189,0.0001923,8.9755e-05,6.5901e-09,-9.0899e-08,4.5172e-05,-0.0023872,0.0018161,0.00057114,7.0481e-09,-9.4328e-08,0.00060434,1,1,31.38,1721.4,0,3000
-6.2688e-14,-6.2688e-14,1.0452,38.46,26.248,2.6896,0.00039239,-0.0054123,0.10494,33.374,0,0,0,65.753,1069.9,865.22,0.85281,26.248,38.652,0.99745,-0.071337,0.00021368,-0.00021317,1.4818e-05,1,-0.071337,-0.99745,-4.2635e-07,-0.0025091,0.0020084,0.0006609,0.00064951,1.3638e-08,-1.8523e-07,0.0027041,0.00016017,-5.4756e-06,-3.4001e-09,-0.0025323,0.0006609,0.0020316,0.99745,-0.071338,2.9081e-05,-2.9018e-05,1.9328e-06,1,-0.071338,-0.99745,-1.4217e-07,-0.00012189,0.0001923,8.9755e-05,6.5901e-09,-9.0899e-08,4.5172e-05,-0.0023872,0.0018161,0.00057114,7.0481e-09,-9.4328e-08,0.00060434,1,1,31.44,1721.4,0,3000
-5.3513e-14,-5.3513e-14,1.0452,38.46,26.248,2.6896,0.00039239,-0.0054123,0.10494,33.374,0,0,0,65.753,1069.9,865.22,0.85281,26.248,38.652,0.99745,-0.071337,0.00021368,-0.00021317,1.4818e-05,1,-0.071337,-0.99745,-4.2635e-07,-0.0025091,0.0020084,0.0006609,0.00064951,1.3638e-08,-1.8523e-07,0.0027041,0.00016017,-5.4756e-06,-3.4001e-09,-0.0025323,0.0006609,0.0020316,0.99745,-0.071338,2.9081e-05,-2.9018e-05,1.9328e-06,1,-0.071338,-0.99745,-1.4217e-07,-0.00012189,0.0001923,8.9755e-05,6.5901e-09,-9.0899e-08,4.5172e-05,-0.0023872,0.0018161,0.00057114,7.0481e-09,-9.4328e-08,0.00060434,1,1,31.5,1721.5,0,3000
-4.4338e-14,-4.4338e-14,1.0452,38.46,26.248,2.6896,0.00039239,-0.0054123,0.10494,33.374,0,0,0,65.753,1069.9,865.22,0.85281,26.248,38.652,0.99745,-0.071337,0.00021368,-0.00021317,1.4818e-05,1,-0.071337,-0.99745,-4.2635e-07,-0.0025091,0.0020084,0.0006609,0.00064951,1.3638e-08,-1.8523e-07,0.0027041,0.00016017,-5.4756e-06,-3.4001e-09,-0.0025323,0.0006609,0.0020316,0.99745,-0.071338,2.9081e-05,-2.9018e-05,1.9328e-06,1,-0.071338,-0.99745,-1.4217e-07,-0.00012189,0.0001923,8.9755e-05,6.5901e-09,-9.0899e-08,4.5172e-05,-0.0023872,0.0018161,0.00057114,7.0481e-09,-9.4328e-08,0.00060434,1,1,31.56,1721.6,0,3000
-3.5181e-14,-3.5181e-14,1.0452,38.46,26.248,2.6896,0.00039239,-0.0054123,0.10494,33.374,0,0,0,65.753,1069.9,865.22,0.85281,26.248,38.652,0.99745,-0.071337,0.00021368,-0.00021317,1.4818e-05,1,-0.071337,-0.99745,-4.2635e-07,-0.0025091,0.0020084,0.0006609,0.00064951,1.3638e-08,-1.8523e-07,0.0027041,0.00016017,-5.4756e-06,-3.4001e-09,-0.0025323,0.0006609,0.0020316,0.99745,-0.071338,2.9081e-05,-2.9018e-05,1.9328e-06,1,-0.071338,-0.99745,-1.4217e-07,-0.00012189,0.0001923,8.9755e-05,6.5901e-09,-9.0899e-08,4.5172e-05,-0.0023872,0.0018161,0.00057114,7.0481e-09,-9.4328e-08,0.00060434,1,1,31.62,1721.6,0,3000
-2.6007e-14,-2.6007e-14,1.0452,38.46,26.248,2.6896,0.00039239,-0.0054123,0.10494,33.374,0,0,0,65.753,1069.9,865.22,0.85281,26.248,38.652,0.99745,-0.071337,0.00021368,-0.00021317,1.4818e-05,1,-0.071337,-0.99745,-4.2635e-07,-0.0025091,0.0020084,0.0006609,0.00064951,1.3638e-08,-1.8523e-07,0.0027041,0.00016017,-5.4756e-06,-3.4001e-09,-0.0025323,0.0006609,0.0020316,0.99745,-0.071338,2.9081e-05,-2.9018e-05,1.9328e-06,1,-0.071338,-0.99745,-1.4217e-07,-0.00012189,0.0001923,8.9755e-05,6.5901e-09,-9.0899e-08,4.5172e-05,-0.0023872,0.0018161,0.00057114,7.0481e-09,-9.4328e-08,0.00060434,1,1,31.68,1721.7,0,3000
-1.685e-14,-1.685e-14,1.0452,38.46,26.248,2.6896,0.00039239,-0.0054123,0.10494,33.374,0,0,0,65.753,1069.9,865.22,0.85281,26.248,38.652,0.99745,-0.071337,0.00021368,-0.00021317,1.4818e-05,1,-0.071337,-0.99745,-4.2635e-07,-0.0025091,0.0020084,0.0006609,0.00064951,1.3638e-08,-1.8523e-07,0.0027041,0.00016017,-5.4756e-06,-3.4001e-09,-0.0025323,0.0006609,0.0020316,0.99745,-0.071338,2.9081e-05,-2.9018e-05,1.9328e-06,1,-0.071338,-0.99745,-1.4217e-07,-0.00012189,0.0001923,8.9755e-05,6.5901e-09,-9.0899e-08,4.5172e-05,-0.0023872,0.0018161,0.00057114,7.0481e-09,-9.4328e-08,0.00060434,1,1,31.74,1721.7,0,3000
-7.6753e-15,-7.6753e-15,1.0452,38.46,26.248,2.6896,0.00039239,-0.0054123,0.10494,33.374,0,0,0,65.753,1069.9,865.22,0.85281,26.248,38.652,0.99745,-0.071337,0.00021368,-0.00021317,1.4818e-05,1,-0.071337,-0.99745,-4.2635e-07,-0.0025091,0.0020084,0.0006609,0.00064951,1.3638e-08,-1.8523e-07,0.0027041,0.00016017,-5.4756e-06,-3.4001e-09,-0.0025323,0.0006609,0.0020316,0.99745,-0.071338,2.9081e-05,-2.9018e-05,1.9328e-06,1,-0.071338,-0.99745,-1.4217e-07,-0.00012189,0.0001923,8.9755e-05,6.5901e-09,-9.0899e-08,4.5172e-05,-0.0023872,0.0018161,0.00057114,7.0481e-09,-9.4328e-08,0.00060434,1,1,31.8,1721.8,0,3000
1.481e-15,1.481e-15,1.0452,38.46,26.248,2.6896,0.00039239,-0.0054123,0.10494,33.374,0,0,0,65.753,1069.9,865.22,0.85281,26.248,38.652,0.99745,-0.071337,0.00021368,-0.00021317,1.4818e-05,1,-0.071337,-0.99745,-4.2635e-07,-0.0025091,0.0020084,0.0006609,0.00064951,1.3638e-08,-1.8523e-07,0.0027041,0.00016017,-5.4756e-06,-3.4001e-09,-0.0025323,0.0006609,0.0020316,0.99745,-0.071338,2.9081e-05,-2.9018e-05,1.9328e-06,1,-0.071338,-0.99745,-1.4217e-07,-0.00012189,0.0001923,8.9755e-05,6.5901e-09,-9.0899e-08,4.5172e-05,-0.0023872,0.0018161,0.00057114,7.0481e-09,-9.4328e-08,0.00060434,1,1,31.86,1721.9,0,3000
1.0656e-14,1.0656e-14,1.0452,38.46,26.248,2.6896,0.00039239,-0.0054123,0.10494,33.374,0,0,0,65.753,1069.9,865.22,0.85281,26.248,38.652,0.99745,-0.071337,0.00021368,-0.00021317,1.4818e-05,1,-0.071337,-0.99745,-4.2635e-07,-0.0025091,0.0020084,0.0006609,0.00064951,1.3638e-08,-1.8523e-07,0.0027041,0.00016017,-5.4756e-06,-3.4001e-09,-0.0025323,0.0006609,0.0020316,0.99745,-0.071338,2.9081e-05,-2.9018e-05,1.9328e-06,1,-0.071338,-0.99745,-1.4217e-07,-0.00012189,0.0001923,8.9755e-05,6.5901e-09,-9.0899e-08,4.5172e-05,-0.0023872,0.0018161,0.00057114,7.0481e-09,-9.4328e-08,0.00060434,1,1,31.92,1721.9,0,3000
1.9812e-14,1.9812e-14,1.0452,38.46,26.248,2.6896,0.00039239,-0.0054123,0.10494,33.374,0,0,0,65.753,1069.9,865.22,0.85281,26.248,38.652,0.99745,-0.071337,0.00021368,-0.00021317,1.4818e-05,1,-0.071337,-0.99745,-4.2635e-07,-0.0025091,0.0020084,0.0006609,0.00064951,1.3638e-08,-1.8523e-07,0.0027041,0.00016017,-5.4756e-06,-3.4001e-09,-0.0025323,0.0006609,0.0020316,0.99745,-0.071338,2.9081e-05,-2.9018e-05,1.9328e-06,1,-0.071338,-0.99745,-1.4217e-07,-0.00012189,0.0001923,8.9755e-05,6.5901e-09,-9.0899e-08,4.5172e-05,-0.0023872,0.0018161,0.00057114,7.0481e-09,-9.4328e-08,0.00060434,1,1,31.98,1722,0,3000
2.3742e-14,2.3742e-14,1.0252,31.764,19.524,2.2097,0.00038237,-0.0052766,0.10667,27.076,0,0,0,52.313,667.85,540.42,0.86712,19.524,31.922,0.99745,-0.071337,0.00028357,-0.00028287,1.9828e-05,1,-0.071337,-0.99745,-4.0162e-07,-0.002539,0.0020056,0.00066082,0.00065339,1.2383e-08,-1.6978e-07,0.0027219,0.00012743,-5.5512e-06,-3.4354e-09,-0.0025623,0.00066082,0.0020289,0.99745,-0.071338,2.6408e-05,-2.6347e-05,1.7965e-06,1,-0.071338,-0.99745,-8.759e-08,-9.5347e-05,0.00016278,5.9996e-05,6.4219e-09,-8.862e-08,3.7112e-05,-0.0024436,0.0018428,0.00060082,5.9612e-09,-8.1161e-08,0.00061628,1,1,32.04,1722,0,3000
2.5046e-14,2.5046e-14,1.0252,31.764,19.524,2.2097,0.00038237,-0.0052766,0.10667,27.076,0,0,0,52.313,667.85,540.42,0.86712,19.524,31.922,0.99745,-0.071337,0.00028357,-0.00028287,1.9828e-05,1,-0.071337,-0.99745,-4.0162e-07,-0.002539,0.0020056,0.00066082,0.00065339,1.2383e-08,-1.6978e-07,0.0027219,0.00012743,-5.5512e-06,-3.4354e-09,-0.0025623,0.00066082,0.0020289,0.99745,-0.071338,2.6408e-05,-2.6347e-05,1.7965e-06,1,-0.071338,-0.99745,-8.759e-08,-9.5347e-05,0.00016278,5.9996e-05,6.4219e-09,-8.862e-08,3.7112e-05,-0.0024436,0.0018428,0.00060082,5.9612e-09,-8.1161e-08,0.00061628,1,1,32.1,1722.1,0,3000
2.6353e-14,2.6353e-14,1.0252,31.764,19.524,2.2097,0.00038237,-0.0052766,0.10667,27.076,0,0,0,52.313,667.85,540.42,0.86712,19.524,31.922,0.99745,-0.071337,0.00028357,-0.00028287,1.9828e-05,1,-0.071337,-0.99745,-4.0162e-07,-0.002539,0.0020056,0.00066082,0.00065339,1.2383e-08,-1.6978e-07,0.0027219,0.00012743,-5.5512e-06,-3.4354e-09,-0.0025623,0.00066082,0.0020289,0.99745,-0.071338,2.6408e-05,-2.6347e-05,1.7965e-06,1,-0.071338,-0.99745,-8.759e-08,-9.5347e-05,0.00016278,5.9996e-05,6.4219e-09,-8.862e-08,3.7112e-05,-0.0024436,0.0018428,0.00060082,5.9612e-09,-8.1161e-08,0.00061628,1,1,32.16,1722.2,0,3000
2.7657e-14,2.7657e-14,1.0252,31.764,19.524,2.2097,0.00038237,-0.0052766,0.10667,27.076,0,0,0,52.313,667.85,540.42,0.86712,19.524,31.922,0.99745,-0.071337,0.00028357,-0.00028287,1.9828e-05,1,-0.071337,-0.99745,-4.0162e-07,-0.002539,0.0020056,0.00066082,0.00065339,1.2383e-08,-1.6978e-07,0.0027219,0.00012743,-5.5512e-06,-3.4354e-09,-0.0025623,0.00066082,0.0020289,0.99745,-0.071338,2.6408e-05,-2.6347e-05,1.7965e-06,1,-0.071338,-0.99745,-8.759e-08,-9.5347e-05,0.00016278,5.9996e-05,6.4219e-09,-8.862e-08,3.7112e-05,-0.0024436,0.0018428,0.00060082,5.9612e-09,-8.1161e-08,0.00061628,1,1,32.22,1722.2,0,3000
2.8964e-14,2.8964e-14,1.0252,31.764,19.524,2.2097,0.00038237,-0.0052766,0.10667,27.076,0,0,0,52.313,667.85,540.42,0.86712,19.524,31.922,0.99745,-0.071337,0.00028357,-0.00028287,1.9828e-05,1,-0.071337,-0.99745,-4.0162e-07,-0.002539,0.0020056,0.00066082,0.00065339,1.2383e-08,-1.6978e-07,0.0027219,0.00012743,-5.5512e-06,-3.4354e-09,-0.0025623,0.00066082,0.0020289,0.99745,-0.071338,2.6408e-05,-2.6347e-05,1.7965e-06,1,-0.071338,-0.99745,-8.759e-08,-9.5347e-05,0.00016278,5.9996e-05,6.4219e-09,-8.862e-08,3.7112e-05,-0.0024436,0.0018428,0.00060082,5.9612e-09,-8.1161e-08,0.00061628,1,1,32.28,1722.3,0,3000
3.0268e-14,3.0268e-14,1.0252,31.764,19.524,2.2097,0.00038237,-0.0052766,0.10667,27.076,0,0,0,52.313,667.85,540.42,0.86712,19.524,31.922,0.99745,-0.071337,0.00028357,-0.00028287,1.9828e-05,1,-0.071337,-0.99745,-4.0162e-07,-0.002539,0.0020056,0.00066082,0.00065339,1.2383e-08,-1.6978e-07,0.0027219,0.00012743,-5.5512e-06,-3.4354e-09,-0.0025623,0.00066082,0.0020289,0.99745,-0.071338,2.6408e-05,-2.6347e-05,1.7965e-06,1,-0.071338,-0.99745,-8.759e-08,-9.5347e-05,0.00016278,5.9996e-05,6.4219e-09,-8.862e-08,3.7112e-05,-0.0024436,0.0018428,0.00060082,5.9612e-09,-8.1161e-08,0.00061628,1,1,32.34,1722.3,0,3000
3.1575e-14,3.1575e-14,1.0252,31.764,19.524,2.2097,0.00038237,-0.0052766,0.10667,27.076,0,0,0,52.313,667.85,540.42,0.86712,19.524,31.922,0.99745,-0.071337,0.00028357,-0.00028287,1.9828e-05,1,-0.071337,-0.99745,-4.0162e-07,-0.002539,0.0020056,0.00066082,0.00065339,1.2383e-08,-1.6978e-07,0.0027219,0.00012743,-5.5512e-06,-3.4354e-09,-0.0025623,0.00066082,0.0020289,0.99745,-0.071338,2.6408e-05,-2.6347e-05,1.7965e-06,1,-0.071338,-0.99745,-8.759e-08,-9.5347e-05,0.00016278,5.9996e-05,6.4219e-09,-8.862e-08,3.7112e-05,-0.0024436,0.0018428,0.00060082,5.9612e-09,-8.1161e-08,0.00061628,1,1,32.4,1722.4,0,3000
3.288e-14,3.288e-14,1.0252,31.764,19.524,2.2097,0.00038237,-0.0052766,0.10667,27.076,0,0,0,52.313,667.85,540.42,0.86712,19.524,31.922,0.99745,-0.071337,0.00028357,-0.00028287,1.9828e-05,1,-0.071337,-0.99745,-4.0162e-07,-0.002539,0.0020056,0.00066082,0.00065339,1.2383e-08,-1.6978e-07,0.0027219,0.00012743,-5.5512e-06,-3.4354e-09,-0.0025623,0.00066082,0.0020289,0.99745,-0.071338,2.6408e-05,-2.6347e-05,1.7965e-06,1,-0.071338,-0.99745,-8.759e-08,-9.5347e-05,0.00016278,5.9996e-05,6.4219e-09,-8.862e-08,3.7112e-05,-0.0024436,0.0018428,0.00060082,5.9612e-09,-8.1161e-08,0.00061628,1,1,32.46,1722.5,0,3000
3.4186e-14,3.4186e-14,1.0252,31.764,19.524,2.2097,0.00038237,-0.0052766,0.10667,27.076,0,0,0,52.313,667.85,540.42,0.86712,19.524,31.922,0.99745,-0.071337,0.00028357,-0.00028287,1.9828e-05,1,-0.071337,-0.99745,-4.0162e-07,-0.002539,0.0020056,0.00066082,0.00065339,1.2383e-08,-1.6978e-07,0.0027219,0.00012743,-5.5512e-06,-3.4354e-09,-0.0025623,0.00066082,0.0020289,0.99745,-0.071338,2.6408e-05,-2.6347e-05,1.7965e-06,1,-0.071338,-0.99745,-8.759e-08,-9.5347e-05,0.00016278,5.9996e-05,6.4219e-09,-8.862e-08,3.7112e-05,-0.0024436,0.0018428,0.00060082,5.9612e-09,-8.1161e-08,0.00061628,1,1,32.52,1722.5,0,3000
3.5491e-14,3.5491e-14,1.0252,31.764,19.524,2.2097,0.00038237,-0.0052766,0.10667,27.076,0,0,0,52.313,667.85,540.42,0.86712,19.524,31.922,0.99745,-0.071337,0.00028357,-0.00028287,1.9828e-05,1,-0.071337,-0.99745,-4.0162e-07,-0.002539,0.0020056,0.00066082,0.00065339,1.2383e-08,-1.6978e-07,0.0027219,0.00012743,-5.5512e-06,-3.4354e-09,-0.0025623,0.00066082,0.0020289,0.99745,-0.071338,2.6408e-05,-2.6347e-05,1.7965e-06,1,-0.071338,-0.99745,-8.759e-08,-9.5347e-05,0.00016278,5.9996e-05,6.4219e-09,-8.862e-08,3.7112e-05,-0.0024436,0.0018428,0.00060082,5.9612e-09,-8.1161e-08,0.00061628,1,1,32.58,1722.6,0,3000
3.6798e-14,3.6798e-14,1.0252,31.764,19.524,2.2097,0.00038237,-0.0052766,0.10667,27.076,0,0,0,52.313,667.85,540.42,0.86712,19.524,31.922,0.99745,-0.071337,0.00028357,-0.00028287,1.9828e-05,1,-0.071337,-0.99745,-4.0162e-07,-0.002539,0.0020056,0.00066082,0.00065339,1.2383e-08,-1.6978e-07,0.0027219,0.00012743,-5.5512e-06,-3.4354e-09,-0.0025623,0.00066082,0.0020289,0.99745,-0.071338,2.6408e-05,-2.6347e-05,1.7965e-06,1,-0.071338,-0.99745,-8.759e-08,-9.5347e-05,0.00016278,5.9996e-05,6.4219e-09,-8.862e-08,3.7112e-05,-0.0024436,0.0018428,0.00060082,5.9612e-09,-8.1161e-08,0.00061628,1,1,32.64,1722.6,0,3000
3.8102e-14,3.8102e-14,1.0252,31.764,19.524,2.2097,0.00038237,-0.0052766,0.10667,27.076,0,0,0,52.313,667.85,540.42,0.86712,19.524,31.922,0.99745,-0.071337,0.00028357,-0.00028287,1.9828e-05,1,-0.071337,-0.99745,-4.0162e-07,-0.002539,0.0020056,0.00066082,0.00065339,1.2383e-08,-1.6978e-07,0.0027219,0.00012743,-5.5512e-06,-3.4354e-09,-0.0025623,0.00066082,0.0020289,0.99745,-0.071338,2.6408e-05,-2.6347e-05,1.7965e-06,1,-0.071338,-0.99745,-8.759e-08,-9.5347e-05,0.00016278,5.9996e-05,6.4219e-09,-8.862e-08,3.7112e-05,-0.0024436,0.0018428,0.00060082,5.9612e-09,-8.1161e-08,0.00061628,1,1,32.7,1722.7,0,3000
3.9409e-14,3.9409e-14,1.0252,31.764,19.524,2.2097,0.00038237,-0.0052766,0.10667,27.076,0,0,0,52.313,667.85,540.42,0.86712,19.524,31.922,0.99745,-0.071337,0.00028357,-0.00028287,1.9828e-05,1,-0.071337,-0.99745,-4.0162e-07,-0.002539,0.0020056,0.00066082,0.00065339,1.2383e-08,-1.6978e-07,0.0027219,0.00012743,-5.5512e-06,-3.4354e-09,-0.0025623,0.00066082,0.0020289,0.99745,-0.071338,2.6408e-05,-2.6347e-05,1.7965e-06,1,-0.071338,-0.99745,-8.759e-08,-9.5347e-05,0.00016278,5.9996e-05,6.4219e-09,-8.862e-08,3.7112e-05,-0.0024436,0.0018428,0.00060082,5.9612e-09,-8.1161e-08,0.00061628,1,1,32.76,1722.8,0,3000
4.0713e-14,4.0713e-14,1.0252,31.764,19.524,2.2097,0.00038237,-0.0052766,0.10667,27.076,0,0,0,52.313,667.85,540.42,0.86712,19.524,31.922,0.99745,-0.071337,0.00028357,-0.00028287,1.9828e-05,1,-0.071337,-0.99745,-4.0162e-07,-0.002539,0.0020056,0.00066082,0.00065339,1.2383e-08,-1.6978e-07,0.0027219,0.00012743,-5.5512e-06,-3.4354e-09,-0.0025623,0.00066082,0.0020289,0.99745,-0.071338,2.6408e-05,-2.6347e-05,1.7965e-06,1,-0.071338,-0.99745,-8.759e-08,-9.5347e-05,0.00016278,5.9996e-05,6.4219e-09,-8.862e-08,3.7112e-05,-0.0024436,0.0018428,0.00060082,5.9612e-09,-8.1161e-08,0.00061628,1,1,32.82,1722.8,0,3000
4.202e-14,4.202e-14,1.0252,31.764,19.524,2.2097,0.00038237,-0.0052766,0.10667,27.076,0,0,0,52.313,667.85,540.42,0.86712,19.524,31.922,0.99745,-0.071337,0.00028357,-0.00028287,1.9828e-05,1,-0.071337,-0.99745,-4.0162e-07,-0.002539,0.0020056,0.00066082,0.00065339,1.2383e-08,-1.6978e-07,0.0027219,0.00012743,-5.5512e-06,-3.4354e-09,-0.0025623,0.00066082,0.0020289,0.99745,-0.071338,2.6408e-05,-2.6347e-05,1.7965e-06,1,-0.071338,-0.99745,-8.759e-08,-9.5347e-05,0.00016278,5.9996e-05,6.4219e-09,-8.862e-08,3.7112e-05,-0.0024436,0.0018428,0.00060082,5.9612e-09,-8.1161e-08,0.00061628,1,1,32.88,1722.9,0,3000
4.3324e-14,4.3324e-14,1.0252,31.764,19.524,2.2097,0.00038237,-0.0052766,0.10667,27.076,0,0,0,52.313,667.85,540.42,0.86712,19.524,31.922,0.99745,-0.071337,0.00028357,-0.00028287,1.9828e-05,1,-0.071337,-0.99745,-4.0162e-07,-0.002539,0.0020056,0.00066082,0.00065339,1.2383e-08,-1.6978e-07,0.0027219,0.00012743,-5.5512e-06,-3.4354e-09,-0.0025623,0.00066082,0.0020289,0.99745,-0.071338,2.6408e-05,-2.6347e-05,1.7965e-06,1,-0.071338,-0.99745,-8.759e-08,-9.5347e-05,0.00016278,5.9996e-05,6.4219e-09,-8.862e-08,3.7112e-05,-0.0024436,0.0018428,0.00060082,5.9612e-09,-8.1161e-08,0.00061628,1,1,32.94,1722.9,0,3000
4.4631e-14,4.4631e-14,1.0252,31.764,19.524,2.2097,0.00038237,-0.0052766,0.10667,27.076,0,0,0,52.313,667.85,540.42,0.86712,19.524,31.922,0.99745,-0.071337,0.00028357,-0.00028287,1.9828e-05,1,-0.071337,-0.99745,-4.0162e-07,-0.002539,0.0020056,0.00066082,0.00065339,1.2383e-08,-1.6978e-07,0.0027219,0.00012743,-5.5512e-06,-3.4354e-09,-0.0025623,0.00066082,0.0020289,0.99745,-0.071338,2.6408e-05,-2.6347e-05,1.7965e-06,1,-0.071338,-0.99745,-8.759e-08,-9.5347e-05,0.00016278,5.9996e-05,6.4219e-09,-8.862e-08,3.7112e-05,-0.0024436,0.0018428,0.00060082,5.9612e-09,-8.1161e-08,0.00061628,1,1,33,1723,0,3000
4.3617e-14,4.3617e-14,1.0013,25.071,12.799,1.7303,0.0003727,-0.0051458,0.10912,21.061,0,0,0,38.871,355.81,282.97,0.8775,12.799,25.195,0.99745,-0.071336,0.00043277,-0.0004317,3.0497e-05,1,-0.071336,-0.99745,-3.7636e-07,-0.0025688,0.0020027,0.00066073,0.00065728,1.1187e-08,-1.5515e-07,0.0027397,9.4686e-05,-5.6266e-06,-3.4706e-09,-0.0025923,0.00066073,0.0020262,0.99745,-0.071338,2.3908e-05,-2.385e-05,1.6725e-06,1,-0.071338,-0.99745,-3.3196e-08,-6.8836e-05,0.00013329,3.0233e-05,6.2594e-09,-8.6423e-08,2.906e-05,-0.0025,0.0018694,0.0006305,4.9276e-09,-6.8723e-08,0.00062822,1,1,33.06,1723.1,0,3000
4.2606e-14,4.2606e-14,1.0013,25.071,12.799,1.7303,0.0003727,-0.0051458,0.10912,21.061,0,0,0,38.871,355.81,282.97,0.8775,12.799,25.195,0.99745,-0.071336,0.00043277,-0.0004317,3.0497e-05,1,-0.071336,-0.99745,-3.7636e-07,-0.0025688,0.0020027,0.00066073,0.00065728,1.1187e-08,-1.5515e-07,0.0027397,9.4686e-05,-5.6266e-06,-3.4706e-09,-0.0025923,0.00066073,0.0020262,0.99745,-0.071338,2.3908e-05,-2.385e-05,1.6725e-06,1,-0.071338,-0.99745,-3.3196e-08,-6.8836e-05,0.00013329,3.0233e-05,6.2594e-09,-8.6423e-08,2.906e-05,-0.0025,0.0018694,0.0006305,4.9276e-09,-6.8723e-08,0.00062822,1,1,33.12,1723.1,0,3000
4.1592e-14,4.1592e-14,1.0013,25.071,12.799,1.7303,0.0003727,-0.0051458,0.10912,21.061,0,0,0,38.871,355.81,282.97,0.8775,12.799,25.195,0.99745,-0.071336,0.00043277,-0.0004317,3.0497e-05,1,-0.071336,-0.99745,-3.7636e-07,-0.0025688,0.0020027,0.00066073,0.00065728,1.1187e-08,-1.5515e-07,0.0027397,9.4686e-05,-5.6266e-06,-3.4706e-09,-0.0025923,0.00066073,0.0020262,0.99745,-0.071338,2.3908e-05,-2.385e-05,1.6725e-06,1,-0.071338,-0.99745,-3.3196e-08,-6.8836e-05,0.00013329,3.0233e-05,6.2594e-09,-8.6423e-08,2.906e-05,-0.0025,0.0018694,0.0006305,4.9276e-09,-6.8723e-08,0.00062822,1,1,33.18,1723.2,0,3000
4.0581e-14,4.0581e-14,1.0013,25.071,12.799,1.7303,0.0003727,-0.0051458,0.10912,21.061,0,0,0,38.871,355.81,282.97,0.8775,12.799,25.195,0.99745,-0.071336,0.00043277,-0.0004317,3.0497e-05,1,-0.071336,-0.99745,-3.7636e-07,-0.0025688,0.0020027,0.00066073,0.00065728,1.1187e-08,-1.5515e-07,0.0027397,9.4686e-05,-5.6266e-06,-3.4706e-09,-0.0025923,0.00066073,0.0020262,0.99745,-0.071338,2.3908e-05,-2.385e-05,1.6725e-06,1,-0.071338,-0.99745,-3.3196e-08,-6.8836e-05,0.00013329,3.0233e-05,6.2594e-09,-8.6423e-08,2.906e-05,-0.0025,0.0018694,0.0006305,4.9276e-09,-6.8723e-08,0.00062822,1,1,33.24,1723.2,0,3000
3.9568e-14,3.9568e-14,1.0013,25.071,12.799,1.7303,0.0003727,-0.0051458,0.10912,21.061,0,0,0,38.871,355.81,282.97,0.8775,12.799,25.195,0.99745,-0.071336,0.00043277,-0.0004317,3.0497e-05,1,-0.071336,-0.99745,-3.7636e-07,-0.0025688,0.0020027,0.00066073,0.00065728,1.1187e-08,-1.5515e-07,0.0027397,9.4686e-05,-5.6266e-06,-3.4706e-09,-0.0025923,0.00066073,0.0020262,0.99745,-0.071338,2.3908e-05,-2.385e-05,1.6725e-06,1,-0.071338,-0.99745,-3.3196e-08,-6.8836e-05,0.00013329,3.0233e-05,6.2594e-09,-8.6423e-08,2.906e-05,-0.0025,0.0018694,0.0006305,4.9276e-09,-6.8723e-08,0.00062822,1,1,33.3,1723.3,0,3000
3.8556e-14,3.8556e-14,1.0013,25.071,12.799,1.7303,0.0003727,-0.0051458,0.10912,21.061,0,0,0,38.871,355.81,282.97,0.8775,12.799,25.195,0.99745,-0.071336,0.00043277,-0.0004317,3.0497e-05,1,-0.071336,-0.99745,-3.7636e-07,-0.0025688,0.0020027,0.00066073,0.00065728,1.1187e-08,-1.5515e-07,0.0027397,9.4686e-05,-5.6266e-06,-3.4706e-09,-0.0025923,0.00066073,0.0020262,0.99745,-0.071338,2.3908e-05,-2.385e-05,1.6725e-06,1,-0.071338,-0.99745,-3.3196e-08,-6.8836e-05,0.00013329,3.0233e-05,6.2594e-09,-8.6423e-08,2.906e-05,-0.0025,0.0018694,0.0006305,4.9276e-09,-6.8723e-08,0.00062822,1,1,33.36,1723.4,0,3000
3.7543e-14,3.7543e-14,1.0013,25.071,12.799,1.7303,0.0003727,-0.0051458,0.10912,21.061,0,0,0,38.871,355.81,282.97,0.8775,12.799,25.195,0.99745,-0.071336,0.00043277,-0.0004317,3.0497e-05,1,-0.071336,-0.99745,-3.7636e-07,-0.0025688,0.0020027,0.00066073,0.00065728,1.1187e-08,-1.5515e-07,0.0027397,9.4686e-05,-5.6266e-06,-3.4706e-09,-0.0025923,0.00066073,0.0020262,0.99745,-0.071338,2.3908e-05,-2.385e-05,1.6725e-06,1,-0.071338,-0.99745,-3.3196e-08,-6.8836e-05,0.00013329,3.0233e-05,6.2594e-09,-8.6423e-08,2.906e-05,-0.0025,0.0018694,0.0006305,4.9276e-09,-6.8723e-08,0.00062822,1,1,33.42,1723.4,0,3000
3.6531e-14,3.6531e-14,1.0013,25.071,12.799,1.7303,0.0003727,-0.0051458,0.10912,21.061,0,0,0,38.871,355.81,282.97,0.8775,12.799,25.195,0.99745,-0.071336,0.00043277,-0.0004317,3.0497e-05,1,-0.071336,-0.99745,-3.7636e-07,-0.0025688,0.0020027,0.00066073,0.00065728,1.1187e-08,-1.5515e-07,0.0027397,9.4686e-05,-5.6266e-06,-3.4706e-09,-0.0025923,0.00066073,0.0020262,0.99745,-0.071338,2.3908e-05,-2.385e-05,1.6725e-06,1,-0.071338,-0.99745,-3.3196e-08,-6.8836e-05,0.00013329,3.0233e-05,6.2594e-09,-8.6423e-08,2.906e-05,-0.0025,0.0018694,0.0006305,4.9276e-09,-6.8723e-08,0.00062822,1,1,33.48,1723.5,0,3000
3.5518e-14,3.5518e-14,1.0013,25.071,12.799,1.7303,0.0003727,-0.0051458,0.10912,21.061,0,0,0,38.871,355.81,282.97,0.8775,12.799,25.195,0.99745,-0.071336,0.00043277,-0.0004317,3.0497e-05,1,-0.071336,-0.99745,-3.7636e-07,-0.0025688,0.0020027,0.00066073,0.00065728,1.1187e-08,-1.5515e-07,0.0027397,9.4686e-05,-5.6266e-06,-3.4706e-09,-0.0025923,0.00066073,0.0020262,0.99745,-0.071338,2.3908e-05,-2.385e-05,1.6725e-06,1,-0.071338,-0.99745,-3.3196e-08,-6.8836e-05,0.00013329,3.0233e-05,6.2594e-09,-8.6423e-08,2.906e-05,-0.0025,0.0018694,0.0006305,4.9276e-09,-6.8723e-08,0.00062822,1,1,33.54,1723.5,0,3000
3.4506e-14,3.4506e-14,1.0013,25.071,12.799,1.7303,0.0003727,-0.0051458,0.10912,21.061,0,0,0,38.871,355.81,282.97,0.8775,12.799,25.195,0.99745,-0.071336,0.00043277,-0.0004317,3.0497e-05,1,-0.071336,-0.99745,-3.7636e-07,-0.0025688,0.0020027,0.00066073,0.00065728,1.1187e-08,-1.5515e-07,0.0027397,9.4686e-05,-5.6266e-06,-3.4706e-09,-0.0025923,0.00066073,0.0020262,0.99745,-0.071338,2.3908e-05,-2.385e-05,1.6725e-06,1,-0.071338,-0.99745,-3.3196e-08,-6.8836e-05,0.00013329,3.0233e-05,6.2594e-09,-8.6423e-08,2.906e-05,-0.0025,0.0018694,0.0006305,4.9276e-09,-6.8723e-08,0.00062822,1,1,33.6,1723.6,0,3000
3.3493e-14,3.3493e-14,1.0013,25.071,12.799,1.7303,0.0003727,-0.0051458,0.10912,21.061,0,0,0,38.871,355.81,282.97,0.8775,12.799,25.195,0.99745,-0.071336,0.00043277,-0.0004317,3.0497e-05,1,-0.071336,-0.99745,-3.7636e-07,-0.0025688,0.0020027,0.00066073,0.00065728,1.1187e-08,-1.5515e-07,0.0027397,9.4686e-05,-5.6266e-06,-3.4706e-09,-0.0025923,0.00066073,0.0020262,0.99745,-0.071338,2.3908e-05,-2.385e-05,1.6725e-06,1,-0.071338,-0.99745,-3.3196e-08,-6.8836e-05,0.00013329,3.0233e-05,6.2594e-09,-8.6423e-08,2.906e-05,-0.0025,0.0018694,0.0006305,4.9276e-09,-6.8723e-08,0.00062822,1,1,33.66,1723.7,0,3000
3.2481e-14,3.2481e-14,1.0013,25.071,12.799,1.7303,0.0003727,-0.0051458,0.10912,21.061,0,0,0,38.871,355.81,282.97,0.8775,12.799,25.195,0.99745,-0.071336,0.00043277,-0.0004317,3.0497e-05,1,-0.071336,-0.99745,-3.7636e-07,-0.0025688,0.0020027,0.00066073,0.00065728,1.1187e-08,-1.5515e-07,0.0027397,9.4686e-05,-5.6266e-06,-3.4706e-09,-0.0025923,0.00066073,0.0020262,0.99745,-0.071338,2.3908e-05,-2.385e-05,1.6725e-06,1,-0.071338,-0.99745,-3.3196e-08,-6.8836e-05,0.00013329,3.0233e-05,6.2594e-09,-8.6423e-08,2.906e-05,-0.0025,0.0018694,0.0006305,4.9276e-09,-6.8723e-08,0.00062822,1,1,33.72,1723.7,0,3000
3.1468e-14,3.1468e-14,1.0013,25.071,12.799,1.7303,0.0003727,-0.0051458,0.10912,21.061,0,0,0,38.871,355.81,282.97,0.8775,12.799,25.195,0.99745,-0.071336,0.00043277,-0.0004317,3.0497e-05,1,-0.071336,-0.99745,-3.7636e-07,-0.0025688,0.0020027,0.00066073,0.00065728,1.1187e-08,-1.5515e-07,0.0027397,9.4686e-05,-5.6266e-06,-3.4706e-09,-0.0025923,0.00066073,0.0020262,0.99745,-0.071338,2.3908e-05,-2.385e-05,1.6725e-06,1,-0.071338,-0.99745,-3.3196e-08,-6.8836e-05,0.00013329,3.0233e-05,6.2594e-09,-8.6423e-08,2.906e-05,-0.0025,0.0018694,0.0006305,4.9276e-09,-6.8723e-08,0.00062822,1,1,33.78,1723.8,0,3000
3.0456e-14,3.0456e-14,1.0013,25.071,12.799,1.7303,0.0003727,-0.0051458,0.10912,21.061,0,0,0,38.871,355.81,282.97,0.8775,12.799,25.195,0.99745,-0.071336,0.00043277,-0.0004317,3.0497e-05,1,-0.071336,-0.99745,-3.7636e-07,-0.0025688,0.0020027,0.00066073,0.00065728,1.1187e-08,-1.5515e-07,0.0027397,9.4686e-05,-5.6266e-06,-3.4706e-09,-0.0025923,0.00066073,0.0020262,0.99745,-0.071338,2.3908e-05,-2.385e-05,1.6725e-06,1,-0.071338,-0.99745,-3.3196e-08,-6.8836e-05,0.00013329,3.0233e-05,6.2594e-09,-8.6423e-08,2.906e-05,-0.0025,0.0018694,0.0006305,4.9276e-09,-6.8723e-08,0.00062822,1,1,33.84,1723.8,0,3000
2.9443e-14,2.9443e-14,1.0013,25.071,12.799,1.7303,0.0003727,-0.0051458,0.10912,21.061,0,0,0,38.871,355.81,282.97,0.8775,12.799,25.195,0.99745,-0.071336,0.00043277,-0.0004317,3.0497e-05,1,-0.071336,-0.99745,-3.7636e-07,-0.0025688,0.0020027,0.00066073,0.00065728,1.1187e-08,-1.5515e-07,0.0027397,9.4686e-05,-5.6266e-06,-3.4706e-09,-0.0025923,0.00066073,0.0020262,0.99745,-0.071338,2.3908e-05,-2.385e-05,1.6725e-06,1,-0.071338,-0.99745,-3.3196e-08,-6.8836e-05,0.00013329,3.0233e-05,6.2594e-09,-8.6423e-08,2.906e-05,-0.0025,0.0018694,0.0006305,4.9276e-09,-6.8723e-08,0.00062822,1,1,33.9,1723.9,0,3000
2.8431e-14,2.8431e-14,1.0013,25.071,12.799,1.7303,0.0003727,-0.0051458,0.10912,21.061,0,0,0,38.871,355.81,282.97,0.8775,12.799,25.195,0.99745,-0.071336,0.00043277,-0.0004317,3.0497e-05,1,-0.071336,-0.99745,-3.7636e-07,-0.0025688,0.0020027,0.00066073,0.00065728,1.1187e-08,-1.5515e-07,0.0027397,9.4686e-05,-5.6266e-06,-3.4706e-09,-0.0025923,0.00066073,0.0020262,0.99745,-0.071338,2.3908e-05,-2.385e-05,1.6725e-06,1,-0.071338,-0.99745,-3.3196e-08,-6.8836e-05,0.00013329,3.0233e-05,6.2594e-09,-8.6423e-08,2.906e-05,-0.0025,0.0018694,0.0006305,4.9276e-09,-6.8723e-08,0.00062822,1,1,33.96,1724,0,3000
2.7338e-14,2.7338e-14,0.97348,18.382,6.0732,1.2514,0.00036337,-0.0050199,0.11231,15.652,0,0,0,25.428,133.88,99.165,0.88398,6.0733,18.471,0.99745,-0.071335,0.00096989,-0.00096744,6.8837e-05,1,-0.071335,-0.99745,-3.5097e-07,-0.0025986,0.0019999,0.00066065,0.00066115,1.0046e-08,-1.4127e-07,0.0027575,6.1941e-05,-5.7018e-06,-3.5056e-09,-0.0026223,0.00066065,0.0020235,0.99745,-0.071338,2.157e-05,-2.1513e-05,1.5597e-06,1,-0.071338,-0.99745,2.0963e-08,-4.2356e-05,0.00010383,4.6899e-07,6.1027e-09,-8.4308e-08,2.1017e-05,-0.0025563,0.0018961,0.00066018,3.9435e-09,-5.6959e-08,0.00064014,1,1,34.02,1724,0,3000
2.6087e-14,2.6087e-14,0.97348,18.382,6.0732,1.2514,0.00036337,-0.0050199,0.11231,15.652,0,0,0,25.428,133.88,99.165,0.88398,6.0733,18.471,0.99745,-0.071335,0.00096989,-0.00096744,6.8837e-05,1,-0.071335,-0.99745,-3.5097e-07,-0.0025986,0.0019999,0.00066065,0.00066115,1.0046e-08,-1.4127e-07,0.0027575,6.1941e-05,-5.7018e-06,-3.5056e-09,-0.0026223,0.00066065,0.0020235,0.99745,-0.071338,2.157e-05,-2.1513e-05,1.5597e-06,1,-0.071338,-0.99745,2.0963e-08,-4.2356e-05,0.00010383,4.6899e-07,6.1027e-09,-8.4308e-08,2.1017e-05,-0.0025563,0.0018961,0.00066018,3.9435e-09,-5.6959e-08,0.00064014,1,1,34.08,1724.1,0,3000
2.4833e-14,2.4833e-14,0.97348,18.382,6.0732,1.2514,0.00036337,-0.0050199,0.11231,15.652,0,0,0,25.428,133.88,99.165,0.88398,6.0733,18.471,0.99745,-0.071335,0.00096989,-0.00096744,6.8837e-05,1,-0.071335,-0.99745,-3.5097e-07,-0.0025986,0.0019999,0.00066065,0.00066115,1.0046e-08,-1.4127e-07,0.0027575,6.1941e-05,-5.7018e-06,-3.5056e-09,-0.0026223,0.00066065,0.0020235,0.99745,-0.071338,2.157e-05,-2.1513e-05,1.5597e-06,1,-0.071338,-0.99745,2.0963e-08,-4.2356e-05,0.00010383,4.6899e-07,6.1027e-09,-8.4308e-08,2.1017e-05,-0.0025563,0.0018961,0.00066018,3.9435e-09,-5.6959e-08,0.00064014,1,1,34.14,1724.1,0,3000
2.3582e-14,2.3582e-14,0.97348,18.382,6.0732,1.2514,0.00036337,-0.0050199,0.11231,15.652,0,0,0,25.428,133.88,99.165,0.88398,6.0733,18.471,0.99745,-0.071335,0.00096989,-0.00096744,6.8837e-05,1,-0.071335,-0.99745,-3.5097e-07,-0.0025986,0.0019999,0.00066065,0.00066115,1.0046e-08,-1.4127e-07,0.0027575,6.1941e-05,-5.7018e-06,-3.5056e-09,-0.0026223,0.00066065,0.0020235,0.99745,-0.071338,2.157e-05,-2.1513e-05,1.5597e-06,1,-0.071338,-0.99745,2.0963e-08,-4.2356e-05,0.00010383,4.6899e-07,6.1027e-09,-8.4308e-08,2.1017e-05,-0.0025563,0.0018961,0.00066018,3.9435e-09,-5.6959e-08,0.00064014,1,1,34.2,1724.2,0,3000
2.2329e-14,2.2329e-14,0.97348,18.382,6.0732,1.2514,0.00036337,-0.0050199,0.11231,15.652,0,0,0,25.428,133.88,99.165,0.88398,6.0733,18.471,0.99745,-0.071335,0.00096989,-0.00096744,6.8837e-05,1,-0.071335,-0.99745,-3.5097e-07,-0.0025986,0.0019999,0.00066065,0.00066115,1.0046e-08,-1.4127e-07,0.0027575,6.1941e-05,-5.7018e-06,-3.5056e-09,-0.0026223,0.00066065,0.0020235,0.99745,-0.071338,2.157e-05,-2.1513e-05,1.5597e-06,1,-0.071338,-0.99745,2.0963e-08,-4.2356e-05,0.00010383,4.6899e-07,6.1027e-09,-8.4308e-08,2.1017e-05,-0.0025563,0.0018961,0.00066018,3.9435e-09,-5.6959e-08,0.00064014,1,1,34.26,1724.3,0,3000
2.1078e-14,2.1078e-14,0.97348,18.382,6.0732,1.2514,0.00036337,-0.0050199,0.11231,15.652,0,0,0,25.428,133.88,99.165,0.88398,6.0733,18.471,0.99745,-0.071335,0.00096989,-0.00096744,6.8837e-05,1,-0.071335,-0.99745,-3.5097e-07,-0.0025986,0.0019999,0.00066065,0.00066115,1.0046e-08,-1.4127e-07,0.0027575,6.1941e-05,-5.7018e-06,-3.5056e-09,-0.0026223,0.00066065,0.0020235,0.99745,-0.071338,2.157e-05,-2.1513e-05,1.5597e-06,1,-0.071338,-0.99745,2.0963e-08,-4.2356e-05,0.00010383,4.6899e-07,6.1027e-09,-8.4308e-08,2.1017e-05,-0.0025563,0.0018961,0.00066018,3.9435e-09,-5.6959e-08,0.00064014,1,1,34.32,1724.3,0,3000
1.9824e-14,1.9824e-14,0.97348,18.382,6.0732,1.2514,0.00036337,-0.0050199,0.11231,15.652,0,0,0,25.428,133.88,99.165,0.88398,6.0733,18.471,0.99745,-0.071335,0.00096989,-0.00096744,6.8837e-05,1,-0.071335,-0.99745,-3.5097e-07,-0.0025986,0.0019999,0.00066065,0.00066115,1.0046e-08,-1.4127e-07,0.0027575,6.1941e-05,-5.7018e-06,-3.5056e-09,-0.0026223,0.00066065,0.0020235,0.99745,-0.071338,2.157e-05,-2.1513e-05,1.5597e-06,1,-0.071338,-0.99745,2.0963e-08,-4.2356e-05,0.00010383,4.6899e-07,6.1027e-09,-8.4308e-08,2.1017e-05,-0.0025563,0.0018961,0.00066018,3.9435e-09,-5.6959e-08,0.00064014,1,1,34.38,1724.4,0,3000
1.8573e-14,1.8573e-14,0.97348,18.382,6.0732,1.2514,0.00036337,-0.0050199,0.11231,15.652,0,0,0,25.428,133.88,99.165,0.88398,6.0733,18.471,0.99745,-0.071335,0.00096989,-0.00096744,6.8837e-05,1,-0.071335,-0.99745,-3.5097e-07,-0.0025986,0.0019999,0.00066065,0.00066115,1.0046e-08,-1.4127e-07,0.0027575,6.1941e-05,-5.7018e-06,-3.5056e-09,-0.0026223,0.00066065,0.0020235,0.99745,-0.071338,2.157e-05,-2.1513e-05,1.5597e-06,1,-0.071338,-0.99745,2.0963e-08,-4.2356e-05,0.00010383,4.6899e-07,6.1027e-09,-8.4308e-08,2.1017e-05,-0.0025563,0.0018961,0.00066018,3.9435e-09,-5.6959e-08,0.00064014,1,1,34.44,1724.4,0,3000
1.7319e-14,1.7319e-14,0.97348,18.382,6.0732,1.2514,0.00036337,-0.0050199,0.11231,15.652,0,0,0,25.428,133.88,99.165,0.88398,6.0733,18.471,0.99745,-0.071335,0.00096989,-0.00096744,6.8837e-05,1,-0.071335,-0.99745,-3.5097e-07,-0.0025986,0.0019999,0.00066065,0.00066115,1.0046e-08,-1.4127e-07,0.0027575,6.1941e-05,-5.7018e-06,-3.5056e-09,-0.0026223,0.00066065,0.0020235,0.99745,-0.071338,2.157e-05,-2.1513e-05,1.5597e-06,1,-0.071338,-0.99745,2.0963e-08,-4.2356e-05,0.00010383,4.6899e-07,6.1027e-09,-8.4308e-08,2.1017e-05,-0.0025563,0.0018961,0.00066018,3.9435e-09,-5.6959e-08,0.00064014,1,1,34.5,1724.5,0,3000
1.6066e-14,1.6066e-14,0.97348,18.382,6.0732,1.2514,0.00036337,-0.0050199,0.11231,15.652,0,0,0,25.428,133.88,99.165,0.88398,6.0733,18.471,0.99745,-0.071335,0.00096989,-0.00096744,6.8837e-05,1,-0.071335,-0.99745,-3.5097e-07,-0.0025986,0.0019999,0.00066065,0.00066115,1.0046e-08,-1.4127e-07,0.0027575,6.1941e-05,-5.7018e-06,-3.5056e-09,-0.0026223,0.00066065,0.0020235,0.99745,-0.071338,2.157e-05,-2.1513e-05,1.5597e-06,1,-0.071338,-0.99745,2.0963e-08,-4.2356e-05,0.00010383,4.6899e-07,6.1027e-09,-8.4308e-08,2.1017e-05,-0.0025563,0.0018961,0.00066018,3.9435e-09,-5.6959e-08,0.00064014,1,1,34.56,1724.6,0,3000
1.4815e-14,1.4815e-14,0.97348,18.382,6.0732,1.2514,0.00036337,-0.0050199,0.11231,15.652,0,0,0,25.428,133.88,99.165,0.88398,6.0733,18.471,0.99745,-0.071335,0.00096989,-0.00096744,6.8837e-05,1,-0.071335,-0.99745,-3.5097e-07,-0.0025986,0.0019999,0.00066065,0.00066115,1.0046e-08,-1.4127e-07,0.0027575,6.1941e-05,-5.7018e-06,-3.5056e-09,-0.0026223,0.00066065,0.0020235,0.99745,-0.071338,2.157e-05,-2.1513e-05,1.5597e-06,1,-0.071338,-0.99745,2.0963e-08,-4.2356e-05,0.00010383,4.6899e-07,6.1027e-09,-8.4308e-08,2.1017e-05,-0.0025563,0.0018961,0.00066018,3.9435e-09,-5.6959e-08,0.00064014,1,1,34.62,1724.6,0,3000
1.3561e-14,1.3561e-14,0.97348,18.382,6.0732,1.2514,0.00036337,-0.0050199,0.11231,15.652,0,0,0,25.428,133.88,99.165,0.88398,6.0733,18.471,0.99745,-0.071335,0.00096989,-0.00096744,6.8837e-05,1,-0.071335,-0.99745,-3.5097e-07,-0.0025986,0.0019999,0.00066065,0.00066115,1.0046e-08,-1.4127e-07,0.0027575,6.1941e-05,-5.7018e-06,-3.5056e-09,-0.0026223,0.00066065,0.0020235,0.99745,-0.071338,2.157e-05,-2.1513e-05,1.5597e-06,1,-0.071338,-0.99745,2.0963e-08,-4.2356e-05,0.00010383,4.6899e-07,6.1027e-09,-8.4308e-08,2.1017e-05,-0.0025563,0.0018961,0.00066018,3.9435e-09,-5.6959e-08,0.00064014,1,1,34.68,1724.7,0,3000
1.231e-14,1.231e-14,0.97348,18.382,6.0732,1.2514,0.00036337,-0.0050199,0.11231,15.652,0,0,0,25.428,133.88,99.165,0.88398,6.0733,18.471,0.99745,-0.071335,0.00096989,-0.00096744,6.8837e-05,1,-0.071335,-0.99745,-3.5097e-07,-0.0025986,0.0019999,0.00066065,0.00066115,1.0046e-08,-1.4127e-07,0.0027575,6.1941e-05,-5.7018e-06,-3.5056e-09,-0.0026223,0.00066065,0.0020235,0.99745,-0.071338,2.157e-05,-2.1513e-05,1.5597e-06,1,-0.071338,-0.99745,2.0963e-08,-4.2356e-05,0.00010383,4.6899e-07,6.1027e-09,-8.4308e-08,2.1017e-05,-0.0025563,0.0018961,0.00066018,3.9435e-09,-5.6959e-08,0.00064014,1,1,34.74,1724.7,0,3000
1.1057e-14,1.1057e-14,0.97348,18.382,6.0732,1.2514,0.00036337,-0.0050199,0.11231,15.652,0,0,0,25.428,133.88,99.165,0.88398,6.0733,18.471,0.99745,-0.071335,0.00096989,-0.00096744,6.8837e-05,1,-0.071335,-0.99745,-3.5097e-07,-0.0025986,0.0019999,0.00066065,0.00066115,1.0046e-08,-1.4127e-07,0.0027575,6.1941e-05,-5.7018e-06,-3.5056e-09,-0.0026223,0.00066065,0.0020235,0.99745,-0.071338,2.157e-05,-2.1513e-05,1.5597e-06,1,-0.071338,-0.99745,2.0963e-08,-4.2356e-05,0.00010383,4.6899e-07,6.1027e-09,-8.4308e-08,2.1017e-05,-0.0025563,0.0018961,0.00066018,3.9435e-09,-5.6959e-08,0.00064014,1,1,34.8,1724.8,0,3000
9.8058e-15,9.8058e-15,0.97348,18.382,6.0732,1.2514,0.00036337,-0.0050199,0.11231,15.652,0,0,0,25.428,133.88,99.165,0.88398,6.0733,18.471,0.99745,-0.071335,0.00096989,-0.00096744,6.8837e-05,1,-0.071335,-0.99745,-3.5097e-07,-0.0025986,0.0019999,0.00066065,0.00066115,1.0046e-08,-1.4127e-07,0.0027575,6.1941e-05,-5.7018e-06,-3.5056e-09,-0.0026223,0.00066065,0.0020235,0.99745,-0.071338,2.157e-05,-2.1513e-05,1.5597e-06,1,-0.071338,-0.99745,2.0963e-08,-4.2356e-05,0.00010383,4.6899e-07,6.1027e-09,-8.4308e-08,2.1017e-05,-0.0025563,0.0018961,0.00066018,3.9435e-09,-5.6959e-08,0.00064014,1,1,34.86,1724.9,0,3000
8.5522e-15,8.5522e-15,0.97348,18.382,6.0732,1.2514,0.00036337,-0.0050199,0.11231,15.652,0,0,0,25.428,133.88,99.165,0.88398,6.0733,18.471,0.99745,-0.071335,0.00096989,-0.00096744,6.8837e-05,1,-0.071335,-0.99745,-3.5097e-07,-0.0025986,0.0019999,0.00066065,0.00066115,1.0046e-08,-1.4127e-07,0.0027575,6.1941e-05,-5.7018e-06,-3.5056e-09,-0.0026223,0.00066065,0.0020235,0.99745,-0.071338,2.157e-05,-2.1513e-05,1.5597e-06,1,-0.071338,-0.99745,2.0963e-08,-4.2356e-05,0.00010383,4.6899e-07,6.1027e-09,-8.4308e-08,2.1017e-05,-0.0025563,0.0018961,0.00066018,3.9435e-09,-5.6959e-08,0.00064014,1,1,34.92,1724.9,0,3000
7.3012e-15,7.3012e-15,0.97348,18.382,6.0732,1.2514,0.00036337,-0.0050199,0.11231,15.652,0,0,0,25.428,133.88,99.165,0.88398,6.0733,18.471,0.99745,-0.071335,0.00096989,-0.00096744,6.8837e-05,1,-0.071335,-0.99745,-3.5097e-07,-0.0025986,0.0019999,0.00066065,0.00066115,1.0046e-08,-1.4127e-07,0.0027575,6.1941e-05,-5.7018e-06,-3.5056e-09,-0.0026223,0.00066065,0.0020235,0.99745,-0.071338,2.157e-05,-2.1513e-05,1.5597e-06,1,-0.071338,-0.99745,2.0963e-08,-4.2356e-05,0.00010383,4.6899e-07,6.1027e-09,-8.4308e-08,2.1017e-05,-0.0025563,0.0018961,0.00066018,3.9435e-09,-5.6959e-08,0.00064014,1,1,34.98,1725,0,3000
5.3631e-15,5.3631e-15,0.94183,11.696,-0.65252,0.77302,0.0003544,-0.004899,0.11624,11.71,0,0,0,11.985,2.1716,-6.7982,-0.65254,0.88657,11.751,0.0031832,-0.00022797,0.99999,0.99745,-0.071332,-0.0031914,-0.071332,-0.99745,-3.2536e-07,-0.0026284,0.001997,0.00066057,0.00066503,8.9567e-09,-1.2809e-07,0.0027754,2.9194e-05,-5.7767e-06,-3.5404e-09,-0.0026522,0.00066057,0.0020208,0.99745,-0.071338,1.938e-05,-1.9325e-05,1.4572e-06,1,-0.071338,-0.99745,7.4863e-08,-1.5908e-05,7.4398e-05,-2.9296e-05,5.9521e-09,-8.2278e-08,1.2983e-05,-0.0026125,0.0019226,0.00068987,3.0046e-09,-4.5809e-08,0.00065205,1,1,35.04,1725,0,3000
3.0873e-15,3.0873e-15,0.94183,11.696,-0.65252,0.77302,0.0003544,-0.004899,0.11624,11.71,0,0,0,11.985,2.1716,-6.7982,-0.65254,0.88657,11.751,0.0031832,-0.00022797,0.99999,0.99745,-0.071332,-0.0031914,-0.071332,-0.99745,-3.2536e-07,-0.0026284,0.001997,0.00066057,0.00066503,8.9567e-09,-1.2809e-07,0.0027754,2.9194e-05,-5.7767e-06,-3.5404e-09,-0.0026522,0.00066057,0.0020208,0.99745,-0.071338,1.938e-05,-1.9325e-05,1.4572e-06,1,-0.071338,-0.99745,7.4863e-08,-1.5908e-05,7.4398e-05,-2.9296e-05,5.9521e-09,-8.2278e-08,1.2983e-05,-0.0026125,0.0019226,0.00068987,3.0046e-09,-4.5809e-08,0.00065205,1,1,35.1,1725.1,0,3000
8.0694e-16,8.0694e-16,0.94183,11.696,-0.65252,0.77302,0.0003544,-0.004899,0.11624,11.71,0,0,0,11.985,2.1716,-6.7982,-0.65254,0.88657,11.751,0.0031832,-0.00022797,0.99999,0.99745,-0.071332,-0.0031914,-0.071332,-0.99745,-3.2536e-07,-0.0026284,0.001997,0.00066057,0.00066503,8.9567e-09,-1.2809e-07,0.0027754,2.9194e-05,-5.7767e-06,-3.5404e-09,-0.0026522,0.00066057,0.0020208,0.99745,-0.071338,1.938e-05,-1.9325e-05,1.4572e-06,1,-0.071338,-0.99745,7.4863e-08,-1.5908e-05,7.4398e-05,-2.9296e-05,5.9521e-09,-8.2278e-08,1.2983e-05,-0.0026125,0.0019226,0.00068987,3.0046e-09,-4.5809e-08,0.00065205,1,1,35.16,1725.2,0,3000
-1.4688e-15,-1.4688e-15,0.94183,11.696,-0.65252,0.77302,0.0003544,-0.004899,0.11624,11.71,0,0,0,11.985,2.1716,-6.7982,-0.65254,0.88657,11.751,0.0031832,-0.00022797,0.99999,0.99745,-0.071332,-0.0031914,-0.071332,-0.99745,-3.2536e-07,-0.0026284,0.001997,0.00066057,0.00066503,8.9567e-09,-1.2809e-07,0.0027754,2.9194e-05,-5.7767e-06,-3.5404e-09,-0.0026522,0.00066057,0.0020208,0.99745,-0.071338,1.938e-05,-1.9325e-05,1.4572e-06,1,-0.071338,-0.99745,7.4863e-08,-1.5908e-05,7.4398e-05,-2.9296e-05,5.9521e-09,-8.2278e-08,1.2983e-05,-0.0026125,0.0019226,0.00068987,3.0046e-09,-4.5809e-08,0.00065205,1,1,35.22,1725.2,0,3000
-3.7492e-15,-3.7492e-15,0.94183,11.696,-0.65252,0.77302,0.0003544,-0.004899,0.11624,11.71,0,0,0,11.985,2.1716,-6.7982,-0.65254,0.88657,11.751,0.0031832,-0.00022797,0.99999,0.99745,-0.071332,-0.0031914,-0.071332,-0.99745,-3.2536e-07,-0.0026284,0.001997,0.00066057,0.00066503,8.9567e-09,-1.2809e-07,0.0027754,2.9194e-05,-5.7767e-06,-3.5404e-09,-0.0026522,0.00066057,0.0020208,0.99745,-0.071338,1.938e-05,-1.9325e-05,1.4572e-06,1,-0.071338,-0.99745,7.4863e-08,-1.5908e-05,7.4398e-05,-2.9296e-05,5.9521e-09,-8.2278e-08,1.2983e-05,-0.0026125,0.0019226,0.00068987,3.0046e-09,-4.5809e-08,0.00065205,1,1,35.28,1725.3,0,3000
-6.025e-15,-6.025e-15,0.94183,11.696,-0.65252,0.77302,0.0003544,-0.004899,0.11624,11.71,0,0,0,11.985,2.1716,-6.7982,-0.65254,0.88657,11.751,0.0031832,-0.00022797,0.99999,0.99745,-0.071332,-0.0031914,-0.071332,-0.99745,-3.2536e-07,-0.0026284,0.001997,0.00066057,0.00066503,8.9567e-09,-1.2809e-07,0.0027754,2.9194e-05,-5.7767e-06,-3.5404e-09,-0.0026522,0.00066057,0.0020208,0.99745,-0.071338,1.938e-05,-1.9325e-05,1.4572e-06,1,-0.071338,-0.99745,7.4863e-08,-1.5908e-05,7.4398e-05,-2.9296e-05,5.9521e-09,-8.2278e-08,1.2983e-05,-0.0026125,0.0019226,0.00068987,3.0046e-09,-4.5809e-08,0.00065205,1,1,35.34,1725.3,0,3000
-8.3054e-15,-8.3054e-15,0.94183,11.696,-0.65252,0.77302,0.0003544,-0.004899,0.11624,11.71,0,0,0,11.985,2.1716,-6.7982,-0.65254,0.88657,11.751,0.0031832,-0.00022797,0.99999,0.99745,-0.071332,-0.0031914,-0.071332,-0.99745,-3.2536e-07,-0.0026284,0.001997,0.00066057,0.00066503,8.9567e-09,-1.2809e-07,0.0027754,2.9194e-05,-5.7767e-06,-3.5404e-09,-0.0026522,0.00066057,0.0020208,0.99745,-0.071338,1.938e-05,-1.9325e-05,1.4572e-06,1,-0.071338,-0.99745,7.4863e-08,-1.5908e-05,7.4398e-05,-2.9296e-05,5.9521e-09,-8.2278e-08,1.2983e-05,-0.0026125,0.0019226,0.00068987,3.0046e-09,-4.5809e-08,0.00065205,1,1,35.4,1725.4,0,3000
-1.0581e-14,-1.0581e-14,0.94183,11.696,-0.65252,0.77302,0.0003544,-0.004899,0.11624,11.71,0,0,0,11.985,2.1716,-6.7982,-0.65254,0.88657,11.751,0.0031832,-0.00022797,0.99999,0.99745,-0.071332,-0.0031914,-0.071332,-0.99745,-3.2536e-07,-0.0026284,0.001997,0.00066057,0.00066503,8.9567e-09,-1.2809e-07,0.0027754,2.9194e-05,-5.7767e-06,-3.5404e-09,-0.0026522,0.00066057,0.0020208,0.99745,-0.071338,1.938e-05,-1.9325e-05,1.4572e-06,1,-0.071338,-0.99745,7.4863e-08,-1.5908e-05,7.4398e-05,-2.9296e-05,5.9521e-09,-8.2278e-08,1.2983e-05,-0.0026125,0.0019226,0.00068987,3.0046e-09,-4.5809e-08,0.00065205,1,1,35.46,1725.5,0,3000
-1.2862e-14,-1.2862e-14,0.94183,11.696,-0.65252,0.77302,0.0003544,-0.004899,0.11624,11.71,0,0,0,11.985,2.1716,-6.7982,-0.65254,0.88657,11.751,0.0031832,-0.00022797,0.99999,0.99745,-0.071332,-0.0031914,-0.071332,-0.99745,-3.2536e-07,-0.0026284,0.001997,0.00066057,0.00066503,8.9567e-09,-1.2809e-07,0.0027754,2.9194e-05,-5.7767e-06,-3.5404e-09,-0.0026522,0.00066057,0.0020208,0.99745,-0.071338,1.938e-05,-1.9325e-05,1.4572e-06,1,-0.071338,-0.99745,7.4863e-08,-1.5908e-05,7.4398e-05,-2.9296e-05,5.9521e-09,-8.2278e-08,1.2983e-05,-0.0026125,0.0019226,0.00068987,3.0046e-09,-4.5809e-08,0.00065205,1,1,35.52,1725.5,0,3000
-1.5137e-14,-1.5137e-14,0.94183,11.696,-0.65252,0.77302,0.0003544,-0.004899,0.11624,11.71,0,0,0,11.985,2.1716,-6.7982,-0.65254,0.88657,11.751,0.0031832,-0.00022797,0.99999,0.99745,-0.071332,-0.0031914,-0.071332,-0.99745,-3.2536e-07,-0.0026284,0.001997,0.00066057,0.00066503,8.9567e-09,-1.2809e-07,0.0027754,2.9194e-05,-5.7767e-06,-3.5404e-09,-0.0026522,0.00066057,0.0020208,0.99745,-0.071338,1.938e-05,-1.9325e-05,1.4572e-06,1,-0.071338,-0.99745,7.4863e-08,-1.5908e-05,7.4398e-05,-2.9296e-05,5.9521e-09,-8.2278e-08,1.2983e-05,-0.0026125,0.0019226,0.00068987,3.0046e-09,-4.5809e-08,0.00065205,1,1,35.58,1725.6,0,3000
-1.7418e-14,-1.7418e-14,0.94183,11.696,-0.65252,0.77302,0.0003544,-0.004899,0.11624,11.71,0,0,0,11.985,2.1716,-6.7982,-0.65254,0.88657,11.751,0.0031832,-0.00022797,0.99999,0.99745,-0.071332,-0.0031914,-0.071332,-0.99745,-3.2536e-07,-0.0026284,0.001997,0.00066057,0.00066503,8.9567e-09,-1.2809e-07,0.0027754,2.9194e-05,-5.7767e-06,-3.5404e-09,-0.0026522,0.00066057,0.0020208,0.99745,-0.071338,1.938e-05,-1.9325e-05,1.4572e-06,1,-0.071338,-0.99745,7.4863e-08,-1.5908e-05,7.4398e-05,-2.9296e-05,5.9521e-09,-8.2278e-08,1.2983e-05,-0.0026125,0.0019226,0.00068987,3.0046e-09,-4.5809e-08,0.00065205,1,1,35.64,1725.6,0,3000
-1.9694e-14,-1.9694e-14,0.94183,11.696,-0.65252,0.77302,0.0003544,-0.004899,0.11624,11.71,0,0,0,11.985,2.1716,-6.7982,-0.65254,0.88657,11.751,0.0031832,-0.00022797,0.99999,0.99745,-0.071332,-0.0031914,-0.071332,-0.99745,-3.2536e-07,-0.0026284,0.001997,0.00066057,0.00066503,8.9567e-09,-1.2809e-07,0.0027754,2.9194e-05,-5.7767e-06,-3.5404e-09,-0.0026522,0.00066057,0.0020208,0.99745,-0.071338,1.938e-05,-1.9325e-05,1.4572e-06,1,-0.071338,-0.99745,7.4863e-08,-1.5908e-05,7.4398e-05,-2.9296e-05,5.9521e-09,-8.2278e-08,1.2983e-05,-0.0026125,0.0019226,0.00068987,3.0046e-09,-4.5809e-08,0.00065205,1,1,35.7,1725.7,0,3000
-2.1974e-14,-2.1974e-14,0.94183,11.696,-0.65252,0.77302,0.0003544,-0.004899,0.11624,11.71,0,0,0,11.985,2.1716,-6.7982,-0.65254,0.88657,11.751,0.0031832,-0.00022797,0.99999,0.99745,-0.071332,-0.0031914,-0.071332,-0.99745,-3.2536e-07,-0.0026284,0.001997,0.00066057,0.00066503,8.9567e-09,-1.2809e-07,0.0027754,2.9194e-05,-5.7767e-06,-3.5404e-09,-0.0026522,0.00066057,0.0020208,0.99745,-0.071338,1.938e-05,-1.9325e-05,1.4572e-06,1,-0.071338,-0.99745,7.4863e-08,-1.5908e-05,7.4398e-05,-2.9296e-05,5.9521e-09,-8.2278e-08,1.2983e-05,-0.0026125,0.0019226,0.00068987,3.0046e-09,-4.5809e-08,0.00065205,1,1,35.76,1725.8,0,3000
-2.425e-14,-2.425e-14,0.94183,11.696,-0.65252,0.77302,0.0003544,-0.004899,0.11624,11.71,0,0,0,11.985,2.1716,-6.7982,-0.65254,0.88657,11.751,0.0031832,-0.00022797,0.99999,0.99745,-0.071332,-0.0031914,-0.071332,-0.99745,-3.2536e-07,-0.0026284,0.001997,0.00066057,0.00066503,8.9567e-09,-1.2809e-07,0.0027754,2.9194e-05,-5.7767e-06,-3.5404e-09,-0.0026522,0.00066057,0.0020208,0.99745,-0.071338,1.938e-05,-1.9325e-05,1.4572e-06,1,-0.071338,-0.99745,7.4863e-08,-1.5908e-05,7.4398e-05,-2.9296e-05,5.9521e-09,-8.2278e-08,1.2983e-05,-0.0026125,0.0019226,0.00068987,3.0046e-09,-4.5809e-08,0.00065205,1,1,35.82,1725.8,0,3000
-2.653e-14,-2.653e-14,0.94183,11.696,-0.65252,0.77302,0.0003544,-0.004899,0.11624,11.71,0,0,0,11.985,2.1716,-6.7982,-0.65254,0.88657,11.751,0.0031832,-0.00022797,0.99999,0.99745,-0.071332,-0.0031914,-0.071332,-0.99745,-3.2536e-07,-0.0026284,0.001997,0.00066057,0.00066503,8.9567e-09,-1.2809e-07,0.0027754,2.9194e-05,-5.7767e-06,-3.5404e-09,-0.0026522,0.00066057,0.0020208,0.99745,-0.071338,1.938e-05,-1.9325e-05,1.4572e-06,1,-0.071338,-0.99745,7.4863e-08,-1.5908e-05,7.4398e-05,-2.9296e-05,5.9521e-09,-8.2278e-08,1.2983e-05,-0.0026125,0.0019226,0.00068987,3.0046e-09,-4.5809e-08,0.00065205,1,1,35.88,1725.9,0,3000
-2.8806e-14,-2.8806e-14,0.94183,11.696,-0.65252,0.77302,0.0003544,-0.004899,0.11624,11.71,0,0,0,11.985,2.1716,-6.7982,-0.65254,0.88657,11.751,0.0031832,-0.00022797,0.99999,0.99745,-0.071332,-0.0031914,-0.071332,-0.99745,-3.2536e-07,-0.0026284,0.001997,0.00066057,0.00066503,8.9567e-09,-1.2809e-07,0.0027754,2.9194e-05,-5.7767e-06,-3.5404e-09,-0.0026522,0.00066057,0.0020208,0.99745,-0.071338,1.938e-05,-1.9325e-05,1.4572e-06,1,-0.071338,-0.99745,7.4863e-08,-1.5908e-05,7.4398e-05,-2.9296e-05,5.9521e-09,-8.2278e-08,1.2983e-05,-0.0026125,0.0019226,0.00068987,3.0046e-09,-4.5809e-08,0.00065205,1,1,35.94,1725.9,0,3000
-3.1086e-14,-3.1086e-14,0.90633,5.0136,-7.3784,0.29519,0.00034579,-0.0047833,0.12093,10.945,0,0,0,-1.4584,-39.223,-32.884,-7.3784,0.88523,5.0347,0.00057885,-4.1693e-05,1,0.99745,-0.071321,-0.00058035,-0.071321,-0.99745,-3.0296e-07,-0.0026582,0.0019942,0.00066049,0.0006689,7.9146e-09,-1.1555e-07,0.0027932,-3.5526e-06,-5.8514e-06,-3.5751e-09,-0.0026821,0.00066049,0.0020181,0.99745,-0.071338,1.7325e-05,-1.7272e-05,1.3641e-06,1,-0.071338,-0.99745,1.2846e-07,1.0509e-05,4.5e-05,-5.9061e-05,5.8075e-09,-8.0334e-08,4.9577e-06,-0.0026687,0.0019492,0.00071955,2.1072e-09,-3.5218e-08,0.00066394,1,1,36,1726,0,3000
-2.9606e-14,-2.9606e-14,0.90633,5.0136,-7.3784,0.29519,0.00034579,-0.0047833,0.12093,10.945,0,0,0,-1.4584,-39.223,-32.884,-7.3784,0.88523,5.0347,0.00057885,-4.1693e-05,1,0.99745,-0.071321,-0.00058035,-0.071321,-0.99745,-3.0296e-07,-0.0026582,0.0019942,0.00066049,0.0006689,7.9146e-09,-1.1555e-07,0.0027932,-3.5526e-06,-5.8514e-06,-3.5751e-09,-0.0026821,0.00066049,0.0020181,0.99745,-0.071338,1.7325e-05,-1.7272e-05,1.3641e-06,1,-0.071338,-0.99745,1.2846e-07,1.0509e-05,4.5e-05,-5.9061e-05,5.8075e-09,-8.0334e-08,4.9577e-06,-0.0026687,0.0019492,0.00071955,2.1072e-09,-3.5218e-08,0.00066394,1,1,36.06,1726.1,0,3000
-2.8129e-14,-2.8129e-14,0.90633,5.0136,-7.3784,0.29519,0.00034579,-0.0047833,0.12093,10.945,0,0,0,-1.4584,-39.223,-32.884,-7.3784,0.88523,5.0347,0.00057885,-4.1693e-05,1,0.99745,-0.071321,-0.00058035,-0.071321,-0.99745,-3.0296e-07,-0.0026582,0.0019942,0.00066049,0.0006689,7.9146e-09,-1.1555e-07,0.0027932,-3.5526e-06,-5.8514e-06,-3.5751e-09,-0.0026821,0.00066049,0.0020181,0.99745,-0.071338,1.7325e-05,-1.7272e-05,1.3641e-06,1,-0.071338,-0.99745,1.2846e-07,1.0509e-05,4.5e-05,-5.9061e-05,5.8075e-09,-8.0334e-08,4.9577e-06,-0.0026687,0.0019492,0.00071955,2.1072e-09,-3.5218e-08,0.00066394,1,1,36.12,1726.1,0,3000
-2.6648e-14,-2.6648e-14,0.90633,5.0136,-7.3784,0.29519,0.00034579,-0.0047833,0.12093,10.945,0,0,0,-1.4584,-39.223,-32.884,-7.3784,0.88523,5.0347,0.00057885,-4.1693e-05,1,0.99745,-0.071321,-0.00058035,-0.071321,-0.99745,-3.0296e-07,-0.0026582,0.0019942,0.00066049,0.0006689,7.9146e-09,-1.1555e-07,0.0027932,-3.5526e-06,-5.8514e-06,-3.5751e-09,-0.0026821,0.00066049,0.0020181,0.99745,-0.071338,1.7325e-05,-1.7272e-05,1.3641e-06,1,-0.071338,-0.99745,1.2846e-07,1.0509e-05,4.5e-05,-5.9061e-05,5.8075e-09,-8.0334e-08,4.9577e-06,-0.0026687,0.0019492,0.00071955,2.1072e-09,-3.5218e-08,0.00066394,1,1,36.18,1726.2,0,3000
-2.5171e-14,-2.5171e-14,0.90633,5.0136,-7.3784,0.29519,0.00034579,-0.0047833,0.12093,10.945,0,0,0,-1.4584,-39.223,-32.884,-7.3784,0.88523,5.0347,0.00057885,-4.1693e-05,1,0.99745,-0.071321,-0.00058035,-0.071321,-0.99745,-3.0296e-07,-0.0026582,0.0019942,0.00066049,0.0006689,7.9146e-09,-1.1555e-07,0.0027932,-3.5526e-06,-5.8514e-06,-3.5751e-09,-0.0026821,0.00066049,0.0020181,0.99745,-0.071338,1.7325e-05,-1.7272e-05,1.3641e-06,1,-0.071338,-0.99745,1.2846e-07,1.0509e-05,4.5e-05,-5.9061e-05,5.8075e-09,-8.0334e-08,4.9577e-06,-0.0026687,0.0019492,0.00071955,2.1072e-09,-3.5218e-08,0.00066394,1,1,36.24,1726.2,0,3000
-2.3691e-14,-2.3691e-14,0.90633,5.0136,-7.3784,0.29519,0.00034579,-0.0047833,0.12093,10.945,0,0,0,-1.4584,-39.223,-32.884,-7.3784,0.88523,5.0347,0.00057885,-4.1693e-05,1,0.99745,-0.071321,-0.00058035,-0.071321,-0.99745,-3.0296e-07,-0.0026582,0.0019942,0.00066049,0.0006689,7.9146e-09,-1.1555e-07,0.0027932,-3.5526e-06,-5.8514e-06,-3.5751e-09,-0.0026821,0.00066049,0.0020181,0.99745,-0.071338,1.7325e-05,-1.7272e-05,1.3641e-06,1,-0.071338,-0.99745,1.2846e-07,1.0509e-05,4.5e-05,-5.9061e-05,5.8075e-09,-8.0334e-08,4.9577e-06,-0.0026687,0.0019492,0.00071955,2.1072e-09,-3.5218e-08,0.00066394,1,1,36.3,1726.3,0,3000
-2.2214e-14,-2.2214e-14,0.90633,5.0136,-7.3784,0.29519,0.00034579,-0.0047833,0.12093,10.945,0,0,0,-1.4584,-39.223,-32.884,-7.3784,0.88523,5.0347,0.00057885,-4.1693e-05,1,0.99745,-0.071321,-0.00058035,-0.071321,-0.99745,-3.0296e-07,-0.0026582,0.0019942,0.00066049,0.0006689,7.9146e-09,-1.1555e-07,0.0027932,-3.5526e-06,-5.8514e-06,-3.5751e-09,-0.0026821,0.00066049,0.0020181,0.99745,-0.071338,1.7325e-05,-1.7272e-05,1.3641e-06,1,-0.071338,-0.99745,1.2846e-07,1.0509e-05,4.5e-05,-5.9061e-05,5.8075e-09,-8.0334e-08,4.9577e-06,-0.0026687,0.0019492,0.00071955,2.1072e-09,-3.5218e-08,0.00066394,1,1,36.36,1726.4,0,3000
-2.0733e-14,-2.0733e-14,0.90633,5.0136,-7.3784,0.29519,0.00034579,-0.0047833,0.12093,10.945,0,0,0,-1.4584,-39.223,-32.884,-7.3784,0.88523,5.0347,0.00057885,-4.1693e-05,1,0.99745,-0.071321,-0.00058035,-0.071321,-0.99745,-3.0296e-07,-0.0026582,0.0019942,0.00066049,0.0006689,7.9146e-09,-1.1555e-07,0.0027932,-3.5526e-06,-5.8514e-06,-3.5751e-09,-0.0026821,0.00066049,0.0020181,0.99745,-0.071338,1.7325e-05,-1.7272e-05,1.3641e-06,1,-0.071338,-0.99745,1.2846e-07,1.0509e-05,4.5e-05,-5.9061e-05,5.8075e-09,-8.0334e-08,4.9577e-06,-0.0026687,0.0019492,0.00071955,2.1072e-09,-3.5218e-08,0.00066394,1,1,36.42,1726.4,0,3000
-1.9256e-14,-1.9256e-14,0.90633,5.0136,-7.3784,0.29519,0.00034579,-0.0047833,0.12093,10.945,0,0,0,-1.4584,-39.223,-32.884,-7.3784,0.88523,5.0347,0.00057885,-4.1693e-05,1,0.99745,-0.071321,-0.00058035,-0.071321,-0.99745,-3.0296e-07,-0.0026582,0.0019942,0.00066049,0.0006689,7.9146e-09,-1.1555e-07,0.0027932,-3.5526e-06,-5.8514e-06,-3.5751e-09,-0.0026821,0.00066049,0.0020181,0.99745,-0.071338,1.7325e-05,-1.7272e-05,1.3641e-06,1,-0.071338,-0.99745,1.2846e-07,1.0509e-05,4.5e-05,-5.9061e-05,5.8075e-09,-8.0334e-08,4.9577e-06,-0.0026687,0.0019492,0.00071955,2.1072e-09,-3.5218e-08,0.00066394,1,1,36.48,1726.5,0,3000
-1.7776e-14,-1.7776e-14,0.90633,5.0136,-7.3784,0.29519,0.00034579,-0.0047833,0.12093,10.945,0,0,0,-1.4584,-39.223,-32.884,-7.3784,0.88523,5.0347,0.00057885,-4.1693e-05,1,0.99745,-0.071321,-0.00058035,-0.071321,-0.99745,-3.0296e-07,-0.0026582,0.0019942,0.00066049,0.0006689,7.9146e-09,-1.1555e-07,0.0027932,-3.5526e-06,-5.8514e-06,-3.5751e-09,-0.0026821,0.00066049,0.0020181,0.99745,-0.071338,1.7325e-05,-1.7272e-05,1.3641e-06,1,-0.071338,-0.99745,1.2846e-07,1.0509e-05,4.5e-05,-5.9061e-05,5.8075e-09,-8.0334e-08,4.9577e-06,-0.0026687,0.0019492,0.00071955,2.1072e-09,-3.5218e-08,0.00066394,1,1,36.54,1726.5,0,3000
-1.6299e-14,-1.6299e-14,0.90633,5.0136,-7.3784,0.29519,0.00034579,-0.0047833,0.12093,10.945,0,0,0,-1.4584,-39.223,-32.884,-7.3784,0.88523,5.0347,0.00057885,-4.1693e-05,1,0.99745,-0.071321,-0.00058035,-0.071321,-0.99745,-3.0296e-07,-0.0026582,0.0019942,0.00066049,0.0006689,7.9146e-09,-1.1555e-07,0.0027932,-3.5526e-06,-5.8514e-06,-3.5751e-09,-0.0026821,0.00066049,0.0020181,0.99745,-0.071338,1.7325e-05,-1.7272e-05,1.3641e-06,1,-0.071338,-0.99745,1.2846e-07,1.0509e-05,4.5e-05,-5.9061e-05,5.8075e-09,-8.0334e-08,4.9577e-06,-0.0026687,0.0019492,0.00071955,2.1072e-09,-3.5218e-08,0.00066394,1,1,36.6,1726.6,0,3000
-1.4818e-14,-1.4818e-14,0.90633,5.0136,-7.3784,0.29519,0.00034579,-0.0047833,0.12093,10.945,0,0,0,-1.4584,-39.223,-32.884,-7.3784,0.88523,5.0347,0.00057885,-4.1693e-05,1,0.99745,-0.071321,-0.00058035,-0.071321,-0.99745,-3.0296e-07,-0.0026582,0.0019942,0.00066049,0.0006689,7.9146e-09,-1.1555e-07,0.0027932,-3.5526e-06,-5.8514e-06,-3.5751e-09,-0.0026821,0.00066049,0.0020181,0.99745,-0.071338,1.7325e-05,-1.7272e-05,1.3641e-06,1,-0.071338,-0.99745,1.2846e-07,1.0509e-05,4.5e-05,-5.9061e-05,5.8075e-09,-8.0334e-08,4.9577e-06,-0.0026687,0.0019492,0.00071955,2.1072e-09,-3.5218e-08,0.00066394,1,1,36.66,1726.7,0,3000
-1.3341e-14,-1.3341e-14,0.90633,5.0136,-7.3784,0.29519,0.00034579,-0.0047833,0.12093,10.945,0,0,0,-1.4584,-39.223,-32.884,-7.3784,0.88523,5.0347,0.00057885,-4.1693e-05,1,0.99745,-0.071321,-0.00058035,-0.071321,-0.99745,-3.0296e-07,-0.0026582,0.0019942,0.00066049,0.0006689,7.9146e-09,-1.1555e-07,0.0027932,-3.5526e-06,-5.8514e-06,-3.5751e-09,-0.0026821,0.00066049,0.0020181,0.99745,-0.071338,1.7325e-05,-1.7272e-05,1.3641e-06,1,-0.071338,-0.99745,1.2846e-07,1.0509e-05,4.5e-05,-5.9061e-05,5.8075e-09,-8.0334e-08,4.9577e-06,-0.0026687,0.0019492,0.00071955,2.1072e-09,-3.5218e-08,0.00066394,1,1,36.72,1726.7,0,3000
-1.1861e-14,-1.1861e-14,0.90633,5.0136,-7.3784,0.29519,0.00034579,-0.0047833,0.12093,10.945,0,0,0,-1.4584,-39.223,-32.884,-7.3784,0.88523,5.0347,0.00057885,-4.1693e-05,1,0.99745,-0.071321,-0.00058035,-0.071321,-0.99745,-3.0296e-07,-0.0026582,0.0019942,0.00066049,0.0006689,7.9146e-09,-1.1555e-07,0.0027932,-3.5526e-06,-5.8514e-06,-3.5751e-09,-0.0026821,0.00066049,0.0020181,0.99745,-0.071338,1.7325e-05,-1.7272e-05,1.3641e-06,1,-0.071338,-0.99745,1.2846e-07,1.0509e-05,4.5e-05,-5.9061e-05,5.8075e-09,-8.0334e-08,4.9577e-06,-0.0026687,0.0019492,0.00071955,2.1072e-09,-3.5218e-08,0.00066394,1,1,36.78,1726.8,0,3000
-1.0384e-14,-1.0384e-14,0.90633,5.0136,-7.3784,0.29519,0.00034579,-0.0047833,0.12093,10.945,0,0,0,-1.4584,-39.223,-32.884,-7.3784,0.88523,5.0347,0.00057885,-4.1693e-05,1,0.99745,-0.071321,-0.00058035,-0.071321,-0.99745,-3.0296e-07,-0.0026582,0.0019942,0.00066049,0.0006689,7.9146e-09,-1.1555e-07,0.0027932,-3.5526e-06,-5.8514e-06,-3.5751e-09,-0.0026821,0.00066049,0.0020181,0.99745,-0.071338,1.7325e-05,-1.7272e-05,1.3641e-06,1,-0.071338,-0.99745,1.2846e-07,1.0509e-05,4.5e-05,-5.9061e-05,5.8075e-09,-8.0334e-08,4.9577e-06,-0.0026687,0.0019492,0.00071955,2.1072e-09,-3.5218e-08,0.00066394,1,1,36.84,1726.8,0,3000
-8.9034e-15,-8.9034e-15,0.90633,5.0136,-7.3784,0.29519,0.00034579,-0.0047833,0.12093,10.945,0,0,0,-1.4584,-39.223,-32.884,-7.3784,0.88523,5.0347,0.00057885,-4.1693e-05,1,0.99745,-0.071321,-0.00058035,-0.071321,-0.99745,-3.0296e-07,-0.0026582,0.0019942,0.00066049,0.0006689,7.9146e-09,-1.1555e-07,0.0027932,-3.5526e-06,-5.8514e-06,-3.5751e-09,-0.0026821,0.00066049,0.0020181,0.99745,-0.071338,1.7325e-05,-1.7272e-05,1.3641e-06,1,-0.071338,-0.99745,1.2846e-07,1.0509e-05,4.5e-05,-5.9061e-05,5.8075e-09,-8.0334e-08,4.9577e-06,-0.0026687,0.0019492,0.00071955,2.1072e-09,-3.5218e-08,0.00066394,1,1,36.9,1726.9,0,3000
-7.4261e-15,-7.4261e-15,0.90633,5.0136,-7.3784,0.29519,0.00034579,-0.0047833,0.12093,10.945,0,0,0,-1.4584,-39.223,-32.884,-7.3784,0.88523,5.0347,0.00057885,-4.1693e-05,1,0.99745,-0.071321,-0.00058035,-0.071321,-0.99745,-3.0296e-07,-0.0026582,0.0019942,0.00066049,0.0006689,7.9146e-09,-1.1555e-07,0.0027932,-3.5526e-06,-5.8514e-06,-3.5751e-09,-0.0026821,0.00066049,0.0020181,0.99745,-0.071338,1.7325e-05,-1.7272e-05,1.3641e-06,1,-0.071338,-0.99745,1.2846e-07,1.0509e-05,4.5e-05,-5.9061e-05,5.8075e-09,-8.0334e-08,4.9577e-06,-0.0026687,0.0019492,0.00071955,2.1072e-09,-3.5218e-08,0.00066394,1,1,36.96,1727,0,3000
-5.8125e-15,-5.8125e-15,0.86698,-1.6648,-14.104,-0.18209,0.00033755,-0.0046726,0.12638,13.883,0,0,0,-14.902,9.7761,20.825,-14.104,-1.6778,0.88001,0.00031183,-2.257e-05,1,-0.071369,-0.99745,-2.578e-07,0.99745,-0.071369,-0.00031265,-0.002688,0.0019913,0.00066041,0.00067277,6.9166e-09,-1.0361e-07,0.002811,-3.63e-05,-5.9258e-06,-3.6096e-09,-0.0027121,0.00066041,0.0020153,0.99745,-0.071338,1.5395e-05,-1.5343e-05,1.2795e-06,1,-0.071338,-0.99745,1.8171e-07,3.6894e-05,1.5633e-05,-8.8827e-05,5.669e-09,-7.8476e-08,-3.0581e-06,-0.0027249,0.0019757,0.00074923,1.2476e-09,-2.5135e-08,0.00067583,1,1,37.02,1727,0,3000
-3.936e-15,-3.936e-15,0.86698,-1.6648,-14.104,-0.18209,0.00033755,-0.0046726,0.12638,13.883,0,0,0,-14.902,9.7761,20.825,-14.104,-1.6778,0.88001,0.00031183,-2.257e-05,1,-0.071369,-0.99745,-2.578e-07,0.99745,-0.071369,-0.00031265,-0.002688,0.0019913,0.00066041,0.00067277,6.9166e-09,-1.0361e-07,0.002811,-3.63e-05,-5.9258e-06,-3.6096e-09,-0.0027121,0.00066041,0.0020153,0.99745,-0.071338,1.5395e-05,-1.5343e-05,1.2795e-06,1,-0.071338,-0.99745,1.8171e-07,3.6894e-05,1.5633e-05,-8.8827e-05,5.669e-09,-7.8476e-08,-3.0581e-06,-0.0027249,0.0019757,0.00074923,1.2476e-09,-2.5135e-08,0.00067583,1,1,37.08,1727.1,0,3000
-2.0557e-15,-2.0557e-15,0.86698,-1.6648,-14.104,-0.18209,0.00033755,-0.0046726,0.12638,13.883,0,0,0,-14.902,9.7761,20.825,-14.104,-1.6778,0.88001,0.00031183,-2.257e-05,1,-0.071369,-0.99745,-2.578e-07,0.99745,-0.071369,-0.00031265,-0.002688,0.0019913,0.00066041,0.00067277,6.9166e-09,-1.0361e-07,0.002811,-3.63e-05,-5.9258e-06,-3.6096e-09,-0.0027121,0.00066041,0.0020153,0.99745,-0.071338,1.5395e-05,-1.5343e-05,1.2795e-06,1,-0.071338,-0.99745,1.8171e-07,3.6894e-05,1.5633e-05,-8.8827e-05,5.669e-09,-7.8476e-08,-3.0581e-06,-0.0027249,0.0019757,0.00074923,1.2476e-09,-2.5135e-08,0.00067583,1,1,37.14,1727.1,0,3000
-1.7916e-16,-1.7916e-16,0.86698,-1.6648,-14.104,-0.18209,0.00033755,-0.0046726,0.12638,13.883,0,0,0,-14.902,9.7761,20.825,-14.104,-1.6778,0.88001,0.00031183,-2.257e-05,1,-0.071369,-0.99745,-2.578e-07,0.99745,-0.071369,-0.00031265,-0.002688,0.0019913,0.00066041,0.00067277,6.9166e-09,-1.0361e-07,0.002811,-3.63e-05,-5.9258e-06,-3.6096e-09,-0.0027121,0.00066041,0.0020153,0.99745,-0.071338,1.5395e-05,-1.5343e-05,1.2795e-06,1,-0.071338,-0.99745,1.8171e-07,3.6894e-05,1.5633e-05,-8.8827e-05,5.669e-09,-7.8476e-08,-3.0581e-06,-0.0027249,0.0019757,0.00074923,1.2476e-09,-2.5135e-08,0.00067583,1,1,37.2,1727.2,0,3000
1.7012e-15,1.7012e-15,0.86698,-1.6648,-14.104,-0.18209,0.00033755,-0.0046726,0.12638,13.883,0,0,0,-14.902,9.7761,20.825,-14.104,-1.6778,0.88001,0.00031183,-2.257e-05,1,-0.071369,-0.99745,-2.578e-07,0.99745,-0.071369,-0.00031265,-0.002688,0.0019913,0.00066041,0.00067277,6.9166e-09,-1.0361e-07,0.002811,-3.63e-05,-5.9258e-06,-3.6096e-09,-0.0027121,0.00066041,0.0020153,0.99745,-0.071338,1.5395e-05,-1.5343e-05,1.2795e-06,1,-0.071338,-0.99745,1.8171e-07,3.6894e-05,1.5633e-05,-8.8827e-05,5.669e-09,-7.8476e-08,-3.0581e-06,-0.0027249,0.0019757,0.00074923,1.2476e-09,-2.5135e-08,0.00067583,1,1,37.26,1727.3,0,3000
3.5777e-15,3.5777e-15,0.86698,-1.6648,-14.104,-0.18209,0.00033755,-0.0046726,0.12638,13.883,0,0,0,-14.902,9.7761,20.825,-14.104,-1.6778,0.88001,0.00031183,-2.257e-05,1,-0.071369,-0.99745,-2.578e-07,0.99745,-0.071369,-0.00031265,-0.002688,0.0019913,0.00066041,0.00067277,6.9166e-09,-1.0361e-07,0.002811,-3.63e-05,-5.9258e-06,-3.6096e-09,-0.0027121,0.00066041,0.0020153,0.99745,-0.071338,1.5395e-05,-1.5343e-05,1.2795e-06,1,-0.071338,-0.99745,1.8171e-07,3.6894e-05,1.5633e-05,-8.8827e-05,5.669e-09,-7.8476e-08,-3.0581e-06,-0.0027249,0.0019757,0.00074923,1.2476e-09,-2.5135e-08,0.00067583,1,1,37.32,1727.3,0,3000
5.458e-15,5.458e-15,0.86698,-1.6648,-14.104,-0.18209,0.00033755,-0.0046726,0.12638,13.883,0,0,0,-14.902,9.7761,20.825,-14.104,-1.6778,0.88001,0.00031183,-2.257e-05,1,-0.071369,-0.99745,-2.578e-07,0.99745,-0.071369,-0.00031265,-0.002688,0.0019913,0.00066041,0.00067277,6.9166e-09,-1.0361e-07,0.002811,-3.63e-05,-5.9258e-06,-3.6096e-09,-0.0027121,0.00066041,0.0020153,0.99745,-0.071338,1.5395e-05,-1.5343e-05,1.2795e-06,1,-0.071338,-0.99745,1.8171e-07,3.6894e-05,1.5633e-05,-8.8827e-05,5.669e-09,-7.8476e-08,-3.0581e-06,-0.0027249,0.0019757,0.00074923,1.2476e-09,-2.5135e-08,0.00067583,1,1,37.38,1727.4,0,3000
7.3345e-15,7.3345e-15,0.86698,-1.6648,-14.104,-0.18209,0.00033755,-0.0046726,0.12638,13.883,0,0,0,-14.902,9.7761,20.825,-14.104,-1.6778,0.88001,0.00031183,-2.257e-05,1,-0.071369,-0.99745,-2.578e-07,0.99745,-0.071369,-0.00031265,-0.002688,0.0019913,0.00066041,0.00067277,6.9166e-09,-1.0361e-07,0.002811,-3.63e-05,-5.9258e-06,-3.6096e-09,-0.0027121,0.00066041,0.0020153,0.99745,-0.071338,1.5395e-05,-1.5343e-05,1.2795e-06,1,-0.071338,-0.99745,1.8171e-07,3.6894e-05,1.5633e-05,-8.8827e-05,5.669e-09,-7.8476e-08,-3.0581e-06,-0.0027249,0.0019757,0.00074923,1.2476e-09,-2.5135e-08,0.00067583,1,1,37.44,1727.4,0,3000
9.2149e-15,9.2149e-15,0.86698,-1.6648,-14.104,-0.18209,0.00033755,-0.0046726,0.12638,13.883,0,0,0,-14.902,9.7761,20.825,-14.104,-1.6778,0.88001,0.00031183,-2.257e-05,1,-0.071369,-0.99745,-2.578e-07,0.99745,-0.071369,-0.00031265,-0.002688,0.0019913,0.00066041,0.00067277,6.9166e-09,-1.0361e-07,0.002811,-3.63e-05,-5.9258e-06,-3.6096e-09,-0.0027121,0.00066041,0.0020153,0.99745,-0.071338,1.5395e-05,-1.5343e-05,1.2795e-06,1,-0.071338,-0.99745,1.8171e-07,3.6894e-05,1.5633e-05,-8.8827e-05,5.669e-09,-7.8476e-08,-3.0581e-06,-0.0027249,0.0019757,0.00074923,1.2476e-09,-2.5135e-08,0.00067583,1,1,37.5,1727.5,0,3000
1.1095e-14,1.1095e-14,0.86698,-1.6648,-14.104,-0.18209,0.00033755,-0.0046726,0.12638,13.883,0,0,0,-14.902,9.7761,20.825,-14.104,-1.6778,0.88001,0.00031183,-2.257e-05,1,-0.071369,-0.99745,-2.578e-07,0.99745,-0.071369,-0.00031265,-0.002688,0.0019913,0.00066041,0.00067277,6.9166e-09,-1.0361e-07,0.002811,-3.63e-05,-5.9258e-06,-3.6096e-09,-0.0027121,0.00066041,0.0020153,0.99745,-0.071338,1.5395e-05,-1.5343e-05,1.2795e-06,1,-0.071338,-0.99745,1.8171e-07,3.6894e-05,1.5633e-05,-8.8827e-05,5.669e-09,-7.8476e-08,-3.0581e-06,-0.0027249,0.0019757,0.00074923,1.2476e-09,-2.5135e-08,0.00067583,1,1,37.56,1727.6,0,3000
1.2972e-14,1.2972e-14,0.86698,-1.6648,-14.104,-0.18209,0.00033755,-0.0046726,0.12638,13.883,0,0,0,-14.902,9.7761,20.825,-14.104,-1.6778,0.88001,0.00031183,-2.257e-05,1,-0.071369,-0.99745,-2.578e-07,0.99745,-0.071369,-0.00031265,-0.002688,0.0019913,0.00066041,0.00067277,6.9166e-09,-1.0361e-07,0.002811,-3.63e-05,-5.9258e-06,-3.6096e-09,-0.0027121,0.00066041,0.0020153,0.99745,-0.071338,1.5395e-05,-1.5343e-05,1.2795e-06,1,-0.071338,-0.99745,1.8171e-07,3.6894e-05,1.5633e-05,-8.8827e-05,5.669e-09,-7.8476e-08,-3.0581e-06,-0.0027249,0.0019757,0.00074923,1.2476e-09,-2.5135e-08,0.00067583,1,1,37.62,1727.6,0,3000
1.4852e-14,1.4852e-14,0.86698,-1.6648,-14.104,-0.18209,0.00033755,-0.0046726,0.12638,13.883,0,0,0,-14.902,9.7761,20.825,-14.104,-1.6778,0.88001,0.00031183,-2.257e-05,1,-0.071369,-0.99745,-2.578e-07,0.99745,-0.071369,-0.00031265,-0.002688,0.0019913,0.00066041,0.00067277,6.9166e-09,-1.0361e-07,0.002811,-3.63e-05,-5.9258e-06,-3.6096e-09,-0.0027121,0.00066041,0.0020153,0.99745,-0.071338,1.5395e-05,-1.5343e-05,1.2795e-06,1,-0.071338,-0.99745,1.8171e-07,3.6894e-05,1.5633e-05,-8.8827e-05,5.669e-09,-7.8476e-08,-3.0581e-06,-0.0027249,0.0019757,0.00074923,1.2476e-09,-2.5135e-08,0.00067583,1,1,37.68,1727.7,0,3000
1.6729e-14,1.6729e-14,0.86698,-1.6648,-14.104,-0.18209,0.00033755,-0.0046726,0.12638,13.883,0,0,0,-14.902,9.7761,20.825,-14.104,-1.6778,0.88001,0.00031183,-2.257e-05,1,-0.071369,-0.99745,-2.578e-07,0.99745,-0.071369,-0.00031265,-0.002688,0.0019913,0.00066041,0.00067277,6.9166e-09,-1.0361e-07,0.002811,-3.63e-05,-5.9258e-06,-3.6096e-09,-0.0027121,0.00066041,0.0020153,0.99745,-0.071338,1.5395e-05,-1.5343e-05,1.2795e-06,1,-0.071338,-0.99745,1.8171e-07,3.6894e-05,1.5633e-05,-8.8827e-05,5.669e-09,-7.8476e-08,-3.0581e-06,-0.0027249,0.0019757,0.00074923,1.2476e-09,-2.5135e-08,0.00067583,1,1,37.74,1727.7,0,3000
1.8609e-14,1.8609e-14,0.86698,-1.6648,-14.104,-0.18209,0.00033755,-0.0046726,0.12638,13.883,0,0,0,-14.902,9.7761,20.825,-14.104,-1.6778,0.88001,0.00031183,-2.257e-05,1,-0.071369,-0.99745,-2.578e-07,0.99745,-0.071369,-0.00031265,-0.002688,0.0019913,0.00066041,0.00067277,6.9166e-09,-1.0361e-07,0.002811,-3.63e-05,-5.9258e-06,-3.6096e-09,-0.0027121,0.00066041,0.0020153,0.99745,-0.071338,1.5395e-05,-1.5343e-05,1.2795e-06,1,-0.071338,-0.99745,1.8171e-07,3.6894e-05,1.5633e-05,-8.8827e-05,5.669e-09,-7.8476e-08,-3.0581e-06,-0.0027249,0.0019757,0.00074923,1.2476e-09,-2.5135e-08,0.00067583,1,1,37.8,1727.8,0,3000
2.0485e-14,2.0485e-14,0.86698,-1.6648,-14.104,-0.18209,0.00033755,-0.0046726,0.12638,13.883,0,0,0,-14.902,9.7761,20.825,-14.104,-1.6778,0.88001,0.00031183,-2.257e-05,1,-0.071369,-0.99745,-2.578e-07,0.99745,-0.071369,-0.00031265,-0.002688,0.0019913,0.00066041,0.00067277,6.9166e-09,-1.0361e-07,0.002811,-3.63e-05,-5.9258e-06,-3.6096e-09,-0.0027121,0.00066041,0.0020153,0.99745,-0.071338,1.5395e-05,-1.5343e-05,1.2795e-06,1,-0.071338,-0.99745,1.8171e-07,3.6894e-05,1.5633e-05,-8.8827e-05,5.669e-09,-7.8476e-08,-3.0581e-06,-0.0027249,0.0019757,0.00074923,1.2476e-09,-2.5135e-08,0.00067583,1,1,37.86,1727.9,0,3000
2.2366e-14,2.2366e-14,0.86698,-1.6648,-14.104,-0.18209,0.00033755,-0.0046726,0.12638,13.883,0,0,0,-14.902,9.7761,20.825,-14.104,-1.6778,0.88001,0.00031183,-2.257e-05,1,-0.071369,-0.99745,-2.578e-07,0.99745,-0.071369,-0.00031265,-0.002688,0.0019913,0.00066041,0.00067277,6.9166e-09,-1.0361e-07,0.002811,-3.63e-05,-5.9258e-06,-3.6096e-09,-0.0027121,0.00066041,0.0020153,0.99745,-0.071338,1.5395e-05,-1.5343e-05,1.2795e-06,1,-0.071338,-0.99745,1.8171e-07,3.6894e-05,1.5633e-05,-8.8827e-05,5.669e-09,-7.8476e-08,-3.0581e-06,-0.0027249,0.0019757,0.00074923,1.2476e-09,-2.5135e-08,0.00067583,1,1,37.92,1727.9,0,3000
2.4242e-14,2.4242e-14,0.86698,-1.6648,-14.104,-0.18209,0.00033755,-0.0046726,0.12638,13.883,0,0,0,-14.902,9.7761,20.825,-14.104,-1.6778,0.88001,0.00031183,-2.257e-05,1,-0.071369,-0.99745,-2.578e-07,0.99745,-0.071369,-0.00031265,-0.002688,0.0019913,0.00066041,0.00067277,6.9166e-09,-1.0361e-07,0.002811,-3.63e-05,-5.9258e-06,-3.6096e-09,-0.0027121,0.00066041,0.0020153,0.99745,-0.071338,1.5395e-05,-1.5343e-05,1.2795e-06,1,-0.071338,-0.99745,1.8171e-07,3.6894e-05,1.5633e-05,-8.8827e-05,5.669e-09,-7.8476e-08,-3.0581e-06,-0.0027249,0.0019757,0.00074923,1.2476e-09,-2.5135e-08,0.00067583,1,1,37.98,1728,0,3000
2.4442e-14,2.4442e-14,0.82379,-8.3394,-20.83,-0.65881,0.00032966,-0.004567,0.13259,18.861,0,0,0,-28.346,149.25,152.14,-20.83,-8.3865,0.87091,0.00021044,-1.5293e-05,1,-0.071347,-0.99745,-2.3934e-07,0.99745,-0.071347,-0.000211,-0.0027178,0.0019884,0.00066032,0.00067663,5.9591e-09,-9.2212e-08,0.0028288,-6.9048e-05,-6e-06,-3.6439e-09,-0.002742,0.00066032,0.0020126,0.99745,-0.071338,1.3579e-05,-1.3528e-05,1.2027e-06,1,-0.071338,-0.99745,2.3456e-07,6.3246e-05,-1.3701e-05,-0.00011859,5.5367e-09,-7.6703e-08,-1.1065e-05,-0.002781,0.0020021,0.00077892,4.224e-10,-1.5509e-08,0.0006877,1,1,38.04,1728,0,3000
2.3803e-14,2.3803e-14,0.82379,-8.3394,-20.83,-0.65881,0.00032966,-0.004567,0.13259,18.861,0,0,0,-28.346,149.25,152.14,-20.83,-8.3865,0.87091,0.00021044,-1.5293e-05,1,-0.071347,-0.99745,-2.3934e-07,0.99745,-0.071347,-0.000211,-0.0027178,0.0019884,0.00066032,0.00067663,5.9591e-09,-9.2212e-08,0.0028288,-6.9048e-05,-6e-06,-3.6439e-09,-0.002742,0.00066032,0.0020126,0.99745,-0.071338,1.3579e-05,-1.3528e-05,1.2027e-06,1,-0.071338,-0.99745,2.3456e-07,6.3246e-05,-1.3701e-05,-0.00011859,5.5367e-09,-7.6703e-08,-1.1065e-05,-0.002781,0.0020021,0.00077892,4.224e-10,-1.5509e-08,0.0006877,1,1,38.1,1728.1,0,3000
2.3163e-14,2.3163e-14,0.82379,-8.3394,-20.83,-0.65881,0.00032966,-0.004567,0.13259,18.861,0,0,0,-28.346,149.25,152.14,-20.83,-8.3865,0.87091,0.00021044,-1.5293e-05,1,-0.071347,-0.99745,-2.3934e-07,0.99745,-0.071347,-0.000211,-0.0027178,0.0019884,0.00066032,0.00067663,5.9591e-09,-9.2212e-08,0.0028288,-6.9048e-05,-6e-06,-3.6439e-09,-0.002742,0.00066032,0.0020126,0.99745,-0.071338,1.3579e-05,-1.3528e-05,1.2027e-06,1,-0.071338,-0.99745,2.3456e-07,6.3246e-05,-1.3701e-05,-0.00011859,5.5367e-09,-7.6703e-08,-1.1065e-05,-0.002781,0.0020021,0.00077892,4.224e-10,-1.5509e-08,0.0006877,1,1,38.16,1728.2,0,3000
2.2525e-14,2.2525e-14,0.82379,-8.3394,-20.83,-0.65881,0.00032966,-0.004567,0.13259,18.861,0,0,0,-28.346,149.25,152.14,-20.83,-8.3865,0.87091,0.00021044,-1.5293e-05,1,-0.071347,-0.99745,-2.3934e-07,0.99745,-0.071347,-0.000211,-0.0027178,0.0019884,0.00066032,0.00067663,5.9591e-09,-9.2212e-08,0.0028288,-6.9048e-05,-6e-06,-3.6439e-09,-0.002742,0.00066032,0.0020126,0.99745,-0.071338,1.3579e-05,-1.3528e-05,1.2027e-06,1,-0.071338,-0.99745,2.3456e-07,6.3246e-05,-1.3701e-05,-0.00011859,5.5367e-09,-7.6703e-08,-1.1065e-05,-0.002781,0.0020021,0.00077892,4.224e-10,-1.5509e-08,0.0006877,1,1,38.22,1728.2,0,3000
2.1884e-14,2.1884e-14,0.82379,-8.3394,-20.83,-0.65881,0.00032966,-0.004567,0.13259,18.861,0,0,0,-28.346,149.25,152.14,-20.83,-8.3865,0.87091,0.00021044,-1.5293e-05,1,-0.071347,-0.99745,-2.3934e-07,0.99745,-0.071347,-0.000211,-0.0027178,0.0019884,0.00066032,0.00067663,5.9591e-09,-9.2212e-08,0.0028288,-6.9048e-05,-6e-06,-3.6439e-09,-0.002742,0.00066032,0.0020126,0.99745,-0.071338,1.3579e-05,-1.3528e-05,1.2027e-06,1,-0.071338,-0.99745,2.3456e-07,6.3246e-05,-1.3701e-05,-0.00011859,5.5367e-09,-7.6703e-08,-1.1065e-05,-0.002781,0.0020021,0.00077892,4.224e-10,-1.5509e-08,0.0006877,1,1,38.28,1728.3,0,3000
2.1246e-14,2.1246e-14,0.82379,-8.3394,-20.83,-0.65881,0.00032966,-0.004567,0.13259,18.861,0,0,0,-28.346,149.25,152.14,-20.83,-8.3865,0.87091,0.00021044,-1.5293e-05,1,-0.071347,-0.99745,-2.3934e-07,0.99745,-0.071347,-0.000211,-0.0027178,0.0019884,0.00066032,0.00067663,5.9591e-09,-9.2212e-08,0.0028288,-6.9048e-05,-6e-06,-3.6439e-09,-0.002742,0.00066032,0.0020126,0.99745,-0.071338,1.3579e-05,-1.3528e-05,1.2027e-06,1,-0.071338,-0.99745,2.3456e-07,6.3246e-05,-1.3701e-05,-0.00011859,5.5367e-09,-7.6703e-08,-1.1065e-05,-0.002781,0.0020021,0.00077892,4.224e-10,-1.5509e-08,0.0006877,1,1,38.34,1728.3,0,3000
2.0605e-14,2.0605e-14,0.82379,-8.3394,-20.83,-0.65881,0.00032966,-0.004567,0.13259,18.861,0,0,0,-28.346,149.25,152.14,-20.83,-8.3865,0.87091,0.00021044,-1.5293e-05,1,-0.071347,-0.99745,-2.3934e-07,0.99745,-0.071347,-0.000211,-0.0027178,0.0019884,0.00066032,0.00067663,5.9591e-09,-9.2212e-08,0.0028288,-6.9048e-05,-6e-06,-3.6439e-09,-0.002742,0.00066032,0.0020126,0.99745,-0.071338,1.3579e-05,-1.3528e-05,1.2027e-06,1,-0.071338,-0.99745,2.3456e-07,6.3246e-05,-1.3701e-05,-0.00011859,5.5367e-09,-7.6703e-08,-1.1065e-05,-0.002781,0.0020021,0.00077892,4.224e-10,-1.5509e-08,0.0006877,1,1,38.4,1728.4,0,3000
1.9967e-14,1.9967e-14,0.82379,-8.3394,-20.83,-0.65881,0.00032966,-0.004567,0.13259,18.861,0,0,0,-28.346,149.25,152.14,-20.83,-8.3865,0.87091,0.00021044,-1.5293e-05,1,-0.071347,-0.99745,-2.3934e-07,0.99745,-0.071347,-0.000211,-0.0027178,0.0019884,0.00066032,0.00067663,5.9591e-09,-9.2212e-08,0.0028288,-6.9048e-05,-6e-06,-3.6439e-09,-0.002742,0.00066032,0.0020126,0.99745,-0.071338,1.3579e-05,-1.3528e-05,1.2027e-06,1,-0.071338,-0.99745,2.3456e-07,6.3246e-05,-1.3701e-05,-0.00011859,5.5367e-09,-7.6703e-08,-1.1065e-05,-0.002781,0.0020021,0.00077892,4.224e-10,-1.5509e-08,0.0006877,1,1,38.46,1728.5,0,3000
1.9327e-14,1.9327e-14,0.82379,-8.3394,-20.83,-0.65881,0.00032966,-0.004567,0.13259,18.861,0,0,0,-28.346,149.25,152.14,-20.83,-8.3865,0.87091,0.00021044,-1.5293e-05,1,-0.071347,-0.99745,-2.3934e-07,0.99745,-0.071347,-0.000211,-0.0027178,0.0019884,0.00066032,0.00067663,5.9591e-09,-9.2212e-08,0.0028288,-6.9048e-05,-6e-06,-3.6439e-09,-0.002742,0.00066032,0.0020126,0.99745,-0.071338,1.3579e-05,-1.3528e-05,1.2027e-06,1,-0.071338,-0.99745,2.3456e-07,6.3246e-05,-1.3701e-05,-0.00011859,5.5367e-09,-7.6703e-08,-1.1065e-05,-0.002781,0.0020021,0.00077892,4.224e-10,-1.5509e-08,0.0006877,1,1,38.52,1728.5,0,3000
1.8688e-14,1.8688e-14,0.82379,-8.3394,-20.83,-0.65881,0.00032966,-0.004567,0.13259,18.861,0,0,0,-28.346,149.25,152.14,-20.83,-8.3865,0.87091,0.00021044,-1.5293e-05,1,-0.071347,-0.99745,-2.3934e-07,0.99745,-0.071347,-0.000211,-0.0027178,0.0019884,0.00066032,0.00067663,5.9591e-09,-9.2212e-08,0.0028288,-6.9048e-05,-6e-06,-3.6439e-09,-0.002742,0.00066032,0.0020126,0.99745,-0.071338,1.3579e-05,-1.3528e-05,1.2027e-06,1,-0.071338,-0.99745,2.3456e-07,6.3246e-05,-1.3701e-05,-0.00011859,5.5367e-09,-7.6703e-08,-1.1065e-05,-0.002781,0.0020021,0.00077892,4.224e-10,-1.5509e-08,0.0006877,1,1,38.58,1728.6,0,3000
1.8048e-14,1.8048e-14,0.82379,-8.3394,-20.83,-0.65881,0.00032966,-0.004567,0.13259,18.861,0,0,0,-28.346,149.25,152.14,-20.83,-8.3865,0.87091,0.00021044,-1.5293e-05,1,-0.071347,-0.99745,-2.3934e-07,0.99745,-0.071347,-0.000211,-0.0027178,0.0019884,0.00066032,0.00067663,5.9591e-09,-9.2212e-08,0.0028288,-6.9048e-05,-6e-06,-3.6439e-09,-0.002742,0.00066032,0.0020126,0.99745,-0.071338,1.3579e-05,-1.3528e-05,1.2027e-06,1,-0.071338,-0.99745,2.3456e-07,6.3246e-05,-1.3701e-05,-0.00011859,5.5367e-09,-7.6703e-08,-1.1065e-05,-0.002781,0.0020021,0.00077892,4.224e-10,-1.5509e-08,0.0006877,1,1,38.64,1728.6,0,3000
1.7409e-14,1.7409e-14,0.82379,-8.3394,-20.83,-0.65881,0.00032966,-0.004567,0.13259,18.861,0,0,0,-28.346,149.25,152.14,-20.83,-8.3865,0.87091,0.00021044,-1.5293e-05,1,-0.071347,-0.99745,-2.3934e-07,0.99745,-0.071347,-0.000211,-0.0027178,0.0019884,0.00066032,0.00067663,5.9591e-09,-9.2212e-08,0.0028288,-6.9048e-05,-6e-06,-3.6439e-09,-0.002742,0.00066032,0.0020126,0.99745,-0.071338,1.3579e-05,-1.3528e-05,1.2027e-06,1,-0.071338,-0.99745,2.3456e-07,6.3246e-05,-1.3701e-05,-0.00011859,5.5367e-09,-7.6703e-08,-1.1065e-05,-0.002781,0.0020021,0.00077892,4.224e-10,-1.5509e-08,0.0006877,1,1,38.7,1728.7,0,3000
1.6769e-14,1.6769e-14,0.82379,-8.3394,-20.83,-0.65881,0.00032966,-0.004567,0.13259,18.861,0,0,0,-28.346,149.25,152.14,-20.83,-8.3865,0.87091,0.00021044,-1.5293e-05,1,-0.071347,-0.99745,-2.3934e-07,0.99745,-0.071347,-0.000211,-0.0027178,0.0019884,0.00066032,0.00067663,5.9591e-09,-9.2212e-08,0.0028288,-6.9048e-05,-6e-06,-3.6439e-09,-0.002742,0.00066032,0.0020126,0.99745,-0.071338,1.3579e-05,-1.3528e-05,1.2027e-06,1,-0.071338,-0.99745,2.3456e-07,6.3246e-05,-1.3701e-05,-0.00011859,5.5367e-09,-7.6703e-08,-1.1065e-05,-0.002781,0.0020021,0.00077892,4.224e-10,-1.5509e-08,0.0006877,1,1,38.76,1728.8,0,3000
1.613e-14,1.613e-14,0.82379,-8.3394,-20.83,-0.65881,0.00032966,-0.004567,0.13259,18.861,0,0,0,-28.346,149.25,152.14,-20.83,-8.3865,0.87091,0.00021044,-1.5293e-05,1,-0.071347,-0.99745,-2.3934e-07,0.99745,-0.071347,-0.000211,-0.0027178,0.0019884,0.00066032,0.00067663,5.9591e-09,-9.2212e-08,0.0028288,-6.9048e-05,-6e-06,-3.6439e-09,-0.002742,0.00066032,0.0020126,0.99745,-0.071338,1.3579e-05,-1.3528e-05,1.2027e-06,1,-0.071338,-0.99745,2.3456e-07,6.3246e-05,-1.3701e-05,-0.00011859,5.5367e-09,-7.6703e-08,-1.1065e-05,-0.002781,0.0020021,0.00077892,4.224e-10,-1.5509e-08,0.0006877,1,1,38.82,1728.8,0,3000
1.549e-14,1.549e-14,0.82379,-8.3394,-20.83,-0.65881,0.00032966,-0.004567,0.13259,18.861,0,0,0,-28.346,149.25,152.14,-20.83,-8.3865,0.87091,0.00021044,-1.5293e-05,1,-0.071347,-0.99745,-2.3934e-07,0.99745,-0.071347,-0.000211,-0.0027178,0.0019884,0.00066032,0.00067663,5.9591e-09,-9.2212e-08,0.0028288,-6.9048e-05,-6e-06,-3.6439e-09,-0.002742,0.00066032,0.0020126,0.99745,-0.071338,1.3579e-05,-1.3528e-05,1.2027e-06,1,-0.071338,-0.99745,2.3456e-07,6.3246e-05,-1.3701e-05,-0.00011859,5.5367e-09,-7.6703e-08,-1.1065e-05,-0.002781,0.0020021,0.00077892,4.224e-10,-1.5509e-08,0.0006877,1,1,38.88,1728.9,0,3000
1.4851e-14,1.4851e-14,0.82379,-8.3394,-20.83,-0.65881,0.00032966,-0.004567,0.13259,18.861,0,0,0,-28.346,149.25,152.14,-20.83,-8.3865,0.87091,0.00021044,-1.5293e-05,1,-0.071347,-0.99745,-2.3934e-07,0.99745,-0.071347,-0.000211,-0.0027178,0.0019884,0.00066032,0.00067663,5.9591e-09,-9.2212e-08,0.0028288,-6.9048e-05,-6e-06,-3.6439e-09,-0.002742,0.00066032,0.0020126,0.99745,-0.071338,1.3579e-05,-1.3528e-05,1.2027e-06,1,-0.071338,-0.99745,2.3456e-07,6.3246e-05,-1.3701e-05,-0.00011859,5.5367e-09,-7.6703e-08,-1.1065e-05,-0.002781,0.0020021,0.00077892,4.224e-10,-1.5509e-08,0.0006877,1,1,38.94,1728.9,0,3000
1.4211e-14,1.4211e-14,0.77676,-15.01,-27.556,-1.135,0.00032215,-0.0044665,0.13957,24.669,0,0,0,-41.79,379.27,356.79,-27.556,-15.091,0.85795,0.00015718,-1.1458e-05,1,-0.071344,-0.99745,-2.1431e-07,0.99745,-0.071344,-0.0001576,-0.0027475,0.0019855,0.00066024,0.00068049,5.0389e-09,-8.1311e-08,0.0028466,-0.0001018,-6.074e-06,-3.6781e-09,-0.0027718,0.00066024,0.0020098,0.99745,-0.071338,1.1868e-05,-1.1817e-05,1.1329e-06,1,-0.071338,-0.99745,2.8695e-07,8.9567e-05,-4.3004e-05,-0.00014836,5.4105e-09,-7.5014e-08,-1.9062e-05,-0.0028371,0.0020285,0.0008086,-3.7153e-10,-6.2974e-09,0.00069955,1,1,39,1729,0,3000
1.7331e-14,1.7331e-14,0.77676,-15.01,-27.556,-1.135,0.00032215,-0.0044665,0.13957,24.669,0,0,0,-41.79,379.27,356.79,-27.556,-15.091,0.85795,0.00015718,-1.1458e-05,1,-0.071344,-0.99745,-2.1431e-07,0.99745,-0.071344,-0.0001576,-0.0027475,0.0019855,0.00066024,0.00068049,5.0389e-09,-8.1311e-08,0.0028466,-0.0001018,-6.074e-06,-3.6781e-09,-0.0027718,0.00066024,0.0020098,0.99745,-0.071338,1.1868e-05,-1.1817e-05,1.1329e-06,1,-0.071338,-0.99745,2.8695e-07,8.9567e-05,-4.3004e-05,-0.00014836,5.4105e-09,-7.5014e-08,-1.9062e-05,-0.0028371,0.0020285,0.0008086,-3.7153e-10,-6.2974e-09,0.00069955,1,1,39.06,1729.1,0,3000
2.0446e-14,2.0446e-14,0.77676,-15.01,-27.556,-1.135,0.00032215,-0.0044665,0.13957,24.669,0,0,0,-41.79,379.27,356.79,-27.556,-15.091,0.85795,0.00015718,-1.1458e-05,1,-0.071344,-0.99745,-2.1431e-07,0.99745,-0.071344,-0.0001576,-0.0027475,0.0019855,0.00066024,0.00068049,5.0389e-09,-8.1311e-08,0.0028466,-0.0001018,-6.074e-06,-3.6781e-09,-0.0027718,0.00066024,0.0020098,0.99745,-0.071338,1.1868e-05,-1.1817e-05,1.1329e-06,1,-0.071338,-0.99745,2.8695e-07,8.9567e-05,-4.3004e-05,-0.00014836,5.4105e-09,-7.5014e-08,-1.9062e-05,-0.0028371,0.0020285,0.0008086,-3.7153e-10,-6.2974e-09,0.00069955,1,1,39.12,1729.1,0,3000
2.3566e-14,2.3566e-14,0.77676,-15.01,-27.556,-1.135,0.00032215,-0.0044665,0.13957,24.669,0,0,0,-41.79,379.27,356.79,-27.556,-15.091,0.85795,0.00015718,-1.1458e-05,1,-0.071344,-0.99745,-2.1431e-07,0.99745,-0.071344,-0.0001576,-0.0027475,0.0019855,0.00066024,0.00068049,5.0389e-09,-8.1311e-08,0.0028466,-0.0001018,-6.074e-06,-3.6781e-09,-0.0027718,0.00066024,0.0020098,0.99745,-0.071338,1.1868e-05,-1.1817e-05,1.1329e-06,1,-0.071338,-0.99745,2.8695e-07,8.9567e-05,-4.3004e-05,-0.00014836,5.4105e-09,-7.5014e-08,-1.9062e-05,-0.0028371,0.0020285,0.0008086,-3.7153e-10,-6.2974e-09,0.00069955,1,1,39.18,1729.2,0,3000
2.668e-14,2.668e-14,0.77676,-15.01,-27.556,-1.135,0.00032215,-0.0044665,0.13957,24.669,0,0,0,-41.79,379.27,356.79,-27.556,-15.091,0.85795,0.00015718,-1.1458e-05,1,-0.071344,-0.99745,-2.1431e-07,0.99745,-0.071344,-0.0001576,-0.0027475,0.0019855,0.00066024,0.00068049,5.0389e-09,-8.1311e-08,0.0028466,-0.0001018,-6.074e-06,-3.6781e-09,-0.0027718,0.00066024,0.0020098,0.99745,-0.071338,1.1868e-05,-1.1817e-05,1.1329e-06,1,-0.071338,-0.99745,2.8695e-07,8.9567e-05,-4.3004e-05,-0.00014836,5.4105e-09,-7.5014e-08,-1.9062e-05,-0.0028371,0.0020285,0.0008086,-3.7153e-10,-6.2974e-09,0.00069955,1,1,39.24,1729.2,0,3000
2.9801e-14,2.9801e-14,0.77676,-15.01,-27.556,-1.135,0.00032215,-0.0044665,0.13957,24.669,0,0,0,-41.79,379.27,356.79,-27.556,-15.091,0.85795,0.00015718,-1.1458e-05,1,-0.071344,-0.99745,-2.1431e-07,0.99745,-0.071344,-0.0001576,-0.0027475,0.0019855,0.00066024,0.00068049,5.0389e-09,-8.1311e-08,0.0028466,-0.0001018,-6.074e-06,-3.6781e-09,-0.0027718,0.00066024,0.0020098,0.99745,-0.071338,1.1868e-05,-1.1817e-05,1.1329e-06,1,-0.071338,-0.99745,2.8695e-07,8.9567e-05,-4.3004e-05,-0.00014836,5.4105e-09,-7.5014e-08,-1.9062e-05,-0.0028371,0.0020285,0.0008086,-3.7153e-10,-6.2974e-09,0.00069955,1,1,39.3,1729.3,0,3000
3.2915e-14,3.2915e-14,0.77676,-15.01,-27.556,-1.135,0.00032215,-0.0044665,0.13957,24.669,0,0,0,-41.79,379.27,356.79,-27.556,-15.091,0.85795,0.00015718,-1.1458e-05,1,-0.071344,-0.99745,-2.1431e-07,0.99745,-0.071344,-0.0001576,-0.0027475,0.0019855,0.00066024,0.00068049,5.0389e-09,-8.1311e-08,0.0028466,-0.0001018,-6.074e-06,-3.6781e-09,-0.0027718,0.00066024,0.0020098,0.99745,-0.071338,1.1868e-05,-1.1817e-05,1.1329e-06,1,-0.071338,-0.99745,2.8695e-07,8.9567e-05,-4.3004e-05,-0.00014836,5.4105e-09,-7.5014e-08,-1.9062e-05,-0.0028371,0.0020285,0.0008086,-3.7153e-10,-6.2974e-09,0.00069955,1,1,39.36,1729.4,0,3000
3.6036e-14,3.6036e-14,0.77676,-15.01,-27.556,-1.135,0.00032215,-0.0044665,0.13957,24.669,0,0,0,-41.79,379.27,356.79,-27.556,-15.091,0.85795,0.00015718,-1.1458e-05,1,-0.071344,-0.99745,-2.1431e-07,0.99745,-0.071344,-0.0001576,-0.0027475,0.0019855,0.00066024,0.00068049,5.0389e-09,-8.1311e-08,0.0028466,-0.0001018,-6.074e-06,-3.6781e-09,-0.0027718,0.00066024,0.0020098,0.99745,-0.071338,1.1868e-05,-1.1817e-05,1.1329e-06,1,-0.071338,-0.99745,2.8695e-07,8.9567e-05,-4.3004e-05,-0.00014836,5.4105e-09,-7.5014e-08,-1.9062e-05,-0.0028371,0.0020285,0.0008086,-3.7153e-10,-6.2974e-09,0.00069955,1,1,39.42,1729.4,0,3000
3.915e-14,3.915e-14,0.77676,-15.01,-27.556,-1.135,0.00032215,-0.0044665,0.13957,24.669,0,0,0,-41.79,379.27,356.79,-27.556,-15.091,0.85795,0.00015718,-1.1458e-05,1,-0.071344,-0.99745,-2.1431e-07,0.99745,-0.071344,-0.0001576,-0.0027475,0.0019855,0.00066024,0.00068049,5.0389e-09,-8.1311e-08,0.0028466,-0.0001018,-6.074e-06,-3.6781e-09,-0.0027718,0.00066024,0.0020098,0.99745,-0.071338,1.1868e-05,-1.1817e-05,1.1329e-06,1,-0.071338,-0.99745,2.8695e-07,8.9567e-05,-4.3004e-05,-0.00014836,5.4105e-09,-7.5014e-08,-1.9062e-05,-0.0028371,0.0020285,0.0008086,-3.7153e-10,-6.2974e-09,0.00069955,1,1,39.48,1729.5,0,3000
4.227e-14,4.227e-14,0.77676,-15.01,-27.556,-1.135,0.00032215,-0.0044665,0.13957,24.669,0,0,0,-41.79,379.27,356.79,-27.556,-15.091,0.85795,0.00015718,-1.1458e-05,1,-0.071344,-0.99745,-2.1431e-07,0.99745,-0.071344,-0.0001576,-0.0027475,0.0019855,0.00066024,0.00068049,5.0389e-09,-8.1311e-08,0.0028466,-0.0001018,-6.074e-06,-3.6781e-09,-0.0027718,0.00066024,0.0020098,0.99745,-0.071338,1.1868e-05,-1.1817e-05,1.1329e-06,1,-0.071338,-0.99745,2.8695e-07,8.9567e-05,-4.3004e-05,-0.00014836,5.4105e-09,-7.5014e-08,-1.9062e-05,-0.0028371,0.0020285,0.0008086,-3.7153e-10,-6.2974e-09,0.00069955,1,1,39.54,1729.5,0,3000
4.5385e-14,4.5385e-14,0.77676,-15.01,-27.556,-1.135,0.00032215,-0.0044665,0.13957,24.669,0,0,0,-41.79,379.27,356.79,-27.556,-15.091,0.85795,0.00015718,-1.1458e-05,1,-0.071344,-0.99745,-2.1431e-07,0.99745,-0.071344,-0.0001576,-0.0027475,0.0019855,0.00066024,0.00068049,5.0389e-09,-8.1311e-08,0.0028466,-0.0001018,-6.074e-06,-3.6781e-09,-0.0027718,0.00066024,0.0020098,0.99745,-0.071338,1.1868e-05,-1.1817e-05,1.1329e-06,1,-0.071338,-0.99745,2.8695e-07,8.9567e-05,-4.3004e-05,-0.00014836,5.4105e-09,-7.5014e-08,-1.9062e-05,-0.0028371,0.0020285,0.0008086,-3.7153e-10,-6.2974e-09,0.00069955,1,1,39.6,1729.6,0,3000
4.8505e-14,4.8505e-14,0.77676,-15.01,-27.556,-1.135,0.00032215,-0.0044665,0.13957,24.669,0,0,0,-41.79,379.27,356.79,-27.556,-15.091,0.85795,0.00015718,-1.1458e-05,1,-0.071344,-0.99745,-2.1431e-07,0.99745,-0.071344,-0.0001576,-0.0027475,0.0019855,0.00066024,0.00068049,5.0389e-09,-8.1311e-08,0.0028466,-0.0001018,-6.074e-06,-3.6781e-09,-0.0027718,0.00066024,0.0020098,0.99745,-0.071338,1.1868e-05,-1.1817e-05,1.1329e-06,1,-0.071338,-0.99745,2.8695e-07,8.9567e-05,-4.3004e-05,-0.00014836,5.4105e-09,-7.5014e-08,-1.9062e-05,-0.0028371,0.0020285,0.0008086,-3.7153e-10,-6.2974e-09,0.00069955,1,1,39.66,1729.7,0,3000
5.1619e-14,5.1619e-14,0.77676,-15.01,-27.556,-1.135,0.00032215,-0.0044665,0.13957,24.669,0,0,0,-41.79,379.27,356.79,-27.556,-15.091,0.85795,0.00015718,-1.1458e-05,1,-0.071344,-0.99745,-2.1431e-07,0.99745,-0.071344,-0.0001576,-0.0027475,0.0019855,0.00066024,0.00068049,5.0389e-09,-8.1311e-08,0.0028466,-0.0001018,-6.074e-06,-3.6781e-09,-0.0027718,0.00066024,0.0020098,0.99745,-0.071338,1.1868e-05,-1.1817e-05,1.1329e-06,1,-0.071338,-0.99745,2.8695e-07,8.9567e-05,-4.3004e-05,-0.00014836,5.4105e-09,-7.5014e-08,-1.9062e-05,-0.0028371,0.0020285,0.0008086,-3.7153e-10,-6.2974e-09,0.00069955,1,1,39.72,1729.7,0,3000
5.474e-14,5.474e-14,0.77676,-15.01,-27.556,-1.135,0.00032215,-0.0044665,0.13957,24.669,0,0,0,-41.79,379.27,356.79,-27.556,-15.091,0.85795,0.00015718,-1.1458e-05,1,-0.071344,-0.99745,-2.1431e-07,0.99745,-0.071344,-0.0001576,-0.0027475,0.0019855,0.00066024,0.00068049,5.0389e-09,-8.1311e-08,0.0028466,-0.0001018,-6.074e-06,-3.6781e-09,-0.0027718,0.00066024,0.0020098,0.99745,-0.071338,1.1868e-05,-1.1817e-05,1.1329e-06,1,-0.071338,-0.99745,2.8695e-07,8.9567e-05,-4.3004e-05,-0.00014836,5.4105e-09,-7.5014e-08,-1.9062e-05,-0.0028371,0.0020285,0.0008086,-3.7153e-10,-6.2974e-09,0.00069955,1,1,39.78,1729.8,0,3000
5.7854e-14,5.7854e-14,0.77676,-15.01,-27.556,-1.135,0.00032215,-0.0044665,0.13957,24.669,0,0,0,-41.79,379.27,356.79,-27.556,-15.091,0.85795,0.00015718,-1.1458e-05,1,-0.071344,-0.99745,-2.1431e-07,0.99745,-0.071344,-0.0001576,-0.0027475,0.0019855,0.00066024,0.00068049,5.0389e-09,-8.1311e-08,0.0028466,-0.0001018,-6.074e-06,-3.6781e-09,-0.0027718,0.00066024,0.0020098,0.99745,-0.071338,1.1868e-05,-1.1817e-05,1.1329e-06,1,-0.071338,-0.99745,2.8695e-07,8.9567e-05,-4.3004e-05,-0.00014836,5.4105e-09,-7.5014e-08,-1.9062e-05,-0.0028371,0.0020285,0.0008086,-3.7153e-10,-6.2974e-09,0.00069955,1,1,39.84,1729.8,0,3000
6.0975e-14,6.0975e-14,0.77676,-15.01,-27.556,-1.135,0.00032215,-0.0044665,0.13957,24.669,0,0,0,-41.79,379.27,356.79,-27.556,-15.091,0.85795,0.00015718,-1.1458e-05,1,-0.071344,-0.99745,-2.1431e-07,0.99745,-0.071344,-0.0001576,-0.0027475,0.0019855,0.00066024,0.00068049,5.0389e-09,-8.1311e-08,0.0028466,-0.0001018,-6.074e-06,-3.6781e-09,-0.0027718,0.00066024,0.0020098,0.99745,-0.071338,1.1868e-05,-1.1817e-05,1.1329e-06,1,-0.071338,-0.99745,2.8695e-07,8.9567e-05,-4.3004e-05,-0.00014836,5.4105e-09,-7.5014e-08,-1.9062e-05,-0.0028371,0.0020285,0.0008086,-3.7153e-10,-6.2974e-09,0.00069955,1,1,39.9,1729.9,0,3000
6.4089e-14,6.4089e-14,0.77676,-15.01,-27.556,-1.135,0.00032215,-0.0044665,0.13957,24.669,0,0,0,-41.79,379.27,356.79,-27.556,-15.091,0.85795,0.00015718,-1.1458e-05,1,-0.071344,-0.99745,-2.1431e-07,0.99745,-0.071344,-0.0001576,-0.0027475,0.0019855,0.00066024,0.00068049,5.0389e-09,-8.1311e-08,0.0028466,-0.0001018,-6.074e-06,-3.6781e-09,-0.0027718,0.00066024,0.0020098,0.99745,-0.071338,1.1868e-05,-1.1817e-05,1.1329e-06,1,-0.071338,-0.99745,2.8695e-07,8.9567e-05,-4.3004e-05,-0.00014836,5.4105e-09,-7.5014e-08,-1.9062e-05,-0.0028371,0.0020285,0.0008086,-3.7153e-10,-6.2974e-09,0.00069955,1,1,39.96,1730,0,3000
6.5289e-14,6.5289e-14,0.72611,-21.677,-34.282,-1.6106,0.00031551,-0.0043783,0.14729,30.837,0,0,0,-55.233,699.9,628.52,-34.282,-21.792,0.84131,0.00012465,-9.1034e-06,1,-0.071343,-0.99745,-1.8745e-07,0.99745,-0.071343,-0.00012498,-0.0027773,0.0019826,0.00066016,0.00068435,3.8339e-09,-6.638e-08,0.0028644,-0.00013454,-6.1478e-06,-3.7122e-09,-0.0028017,0.00066016,0.002007,0.99745,-0.071338,9.6023e-06,-9.5537e-06,1.0225e-06,1,-0.071338,-0.99745,3.3832e-07,0.00011585,-7.2275e-05,-0.00017812,5.2989e-09,-7.3534e-08,-2.705e-05,-0.0028931,0.0020548,0.00083828,-1.465e-09,7.1536e-09,0.0007114,1,1,40.02,1730,0,3000
6.2654e-14,6.2654e-14,0.72611,-21.677,-34.282,-1.6106,0.00031551,-0.0043783,0.14729,30.837,0,0,0,-55.233,699.9,628.52,-34.282,-21.792,0.84131,0.00012465,-9.1034e-06,1,-0.071343,-0.99745,-1.8745e-07,0.99745,-0.071343,-0.00012498,-0.0027773,0.0019826,0.00066016,0.00068435,3.8339e-09,-6.638e-08,0.0028644,-0.00013454,-6.1478e-06,-3.7122e-09,-0.0028017,0.00066016,0.002007,0.99745,-0.071338,9.6023e-06,-9.5537e-06,1.0225e-06,1,-0.071338,-0.99745,3.3832e-07,0.00011585,-7.2275e-05,-0.00017812,5.2989e-09,-7.3534e-08,-2.705e-05,-0.0028931,0.0020548,0.00083828,-1.465e-09,7.1536e-09,0.0007114,1,1,40.08,1730.1,0,3000
6.0014e-14,6.0014e-14,0.72611,-21.677,-34.282,-1.6106,0.00031551,-0.0043783,0.14729,30.837,0,0,0,-55.233,699.9,628.52,-34.282,-21.792,0.84131,0.00012465,-9.1034e-06,1,-0.071343,-0.99745,-1.8745e-07,0.99745,-0.071343,-0.00012498,-0.0027773,0.0019826,0.00066016,0.00068435,3.8339e-09,-6.638e-08,0.0028644,-0.00013454,-6.1478e-06,-3.7122e-09,-0.0028017,0.00066016,0.002007,0.99745,-0.071338,9.6023e-06,-9.5537e-06,1.0225e-06,1,-0.071338,-0.99745,3.3832e-07,0.00011585,-7.2275e-05,-0.00017812,5.2989e-09,-7.3534e-08,-2.705e-05,-0.0028931,0.0020548,0.00083828,-1.465e-09,7.1536e-09,0.0007114,1,1,40.14,1730.1,0,3000
5.7378e-14,5.7378e-14,0.72611,-21.677,-34.282,-1.6106,0.00031551,-0.0043783,0.14729,30.837,0,0,0,-55.233,699.9,628.52,-34.282,-21.792,0.84131,0.00012465,-9.1034e-06,1,-0.071343,-0.99745,-1.8745e-07,0.99745,-0.071343,-0.00012498,-0.0027773,0.0019826,0.00066016,0.00068435,3.8339e-09,-6.638e-08,0.0028644,-0.00013454,-6.1478e-06,-3.7122e-09,-0.0028017,0.00066016,0.002007,0.99745,-0.071338,9.6023e-06,-9.5537e-06,1.0225e-06,1,-0.071338,-0.99745,3.3832e-07,0.00011585,-7.2275e-05,-0.00017812,5.2989e-09,-7.3534e-08,-2.705e-05,-0.0028931,0.0020548,0.00083828,-1.465e-09,7.1536e-09,0.0007114,1,1,40.2,1730.2,0,3000
5.4738e-14,5.4738e-14,0.72611,-21.677,-34.282,-1.6106,0.00031551,-0.0043783,0.14729,30.837,0,0,0,-55.233,699.9,628.52,-34.282,-21.792,0.84131,0.00012465,-9.1034e-06,1,-0.071343,-0.99745,-1.8745e-07,0.99745,-0.071343,-0.00012498,-0.0027773,0.0019826,0.00066016,0.00068435,3.8339e-09,-6.638e-08,0.0028644,-0.00013454,-6.1478e-06,-3.7122e-09,-0.0028017,0.00066016,0.002007,0.99745,-0.071338,9.6023e-06,-9.5537e-06,1.0225e-06,1,-0.071338,-0.99745,3.3832e-07,0.00011585,-7.2275e-05,-0.00017812,5.2989e-09,-7.3534e-08,-2.705e-05,-0.0028931,0.0020548,0.00083828,-1.465e-09,7.1536e-09,0.0007114,1,1,40.26,1730.3,0,3000
5.2103e-14,5.2103e-14,0.72611,-21.677,-34.282,-1.6106,0.00031551,-0.0043783,0.14729,30.837,0,0,0,-55.233,699.9,628.52,-34.282,-21.792,0.84131,0.00012465,-9.1034e-06,1,-0.071343,-0.99745,-1.8745e-07,0.99745,-0.071343,-0.00012498,-0.0027773,0.0019826,0.00066016,0.00068435,3.8339e-09,-6.638e-08,0.0028644,-0.00013454,-6.1478e-06,-3.7122e-09,-0.0028017,0.00066016,0.002007,0.99745,-0.071338,9.6023e-06,-9.5537e-06,1.0225e-06,1,-0.071338,-0.99745,3.3832e-07,0.00011585,-7.2275e-05,-0.00017812,5.2989e-09,-7.3534e-08,-2.705e-05,-0.0028931,0.0020548,0.00083828,-1.465e-09,7.1536e-09,0.0007114,1,1,40.32,1730.3,0,3000
4.9462e-14,4.9462e-14,0.72611,-21.677,-34.282,-1.6106,0.00031551,-0.0043783,0.14729,30.837,0,0,0,-55.233,699.9,628.52,-34.282,-21.792,0.84131,0.00012465,-9.1034e-06,1,-0.071343,-0.99745,-1.8745e-07,0.99745,-0.071343,-0.00012498,-0.0027773,0.0019826,0.00066016,0.00068435,3.8339e-09,-6.638e-08,0.0028644,-0.00013454,-6.1478e-06,-3.7122e-09,-0.0028017,0.00066016,0.002007,0.99745,-0.071338,9.6023e-06,-9.5537e-06,1.0225e-06,1,-0.071338,-0.99745,3.3832e-07,0.00011585,-7.2275e-05,-0.00017812,5.2989e-09,-7.3534e-08,-2.705e-05,-0.0028931,0.0020548,0.00083828,-1.465e-09,7.1536e-09,0.0007114,1,1,40.38,1730.4,0,3000
4.6827e-14,4.6827e-14,0.72611,-21.677,-34.282,-1.6106,0.00031551,-0.0043783,0.14729,30.837,0,0,0,-55.233,699.9,628.52,-34.282,-21.792,0.84131,0.00012465,-9.1034e-06,1,-0.071343,-0.99745,-1.8745e-07,0.99745,-0.071343,-0.00012498,-0.0027773,0.0019826,0.00066016,0.00068435,3.8339e-09,-6.638e-08,0.0028644,-0.00013454,-6.1478e-06,-3.7122e-09,-0.0028017,0.00066016,0.002007,0.99745,-0.071338,9.6023e-06,-9.5537e-06,1.0225e-06,1,-0.071338,-0.99745,3.3832e-07,0.00011585,-7.2275e-05,-0.00017812,5.2989e-09,-7.3534e-08,-2.705e-05,-0.0028931,0.0020548,0.00083828,-1.465e-09,7.1536e-09,0.0007114,1,1,40.44,1730.4,0,3000
4.4187e-14,4.4187e-14,0.72611,-21.677,-34.282,-1.6106,0.00031551,-0.0043783,0.14729,30.837,0,0,0,-55.233,699.9,628.52,-34.282,-21.792,0.84131,0.00012465,-9.1034e-06,1,-0.071343,-0.99745,-1.8745e-07,0.99745,-0.071343,-0.00012498,-0.0027773,0.0019826,0.00066016,0.00068435,3.8339e-09,-6.638e-08,0.0028644,-0.00013454,-6.1478e-06,-3.7122e-09,-0.0028017,0.00066016,0.002007,0.99745,-0.071338,9.6023e-06,-9.5537e-06,1.0225e-06,1,-0.071338,-0.99745,3.3832e-07,0.00011585,-7.2275e-05,-0.00017812,5.2989e-09,-7.3534e-08,-2.705e-05,-0.0028931,0.0020548,0.00083828,-1.465e-09,7.1536e-09,0.0007114,1,1,40.5,1730.5,0,3000
4.1546e-14,4.1546e-14,0.72611,-21.677,-34.282,-1.6106,0.00031551,-0.0043783,0.14729,30.837,0,0,0,-55.233,699.9,628.52,-34.282,-21.792,0.84131,0.00012465,-9.1034e-06,1,-0.071343,-0.99745,-1.8745e-07,0.99745,-0.071343,-0.00012498,-0.0027773,0.0019826,0.00066016,0.00068435,3.8339e-09,-6.638e-08,0.0028644,-0.00013454,-6.1478e-06,-3.7122e-09,-0.0028017,0.00066016,0.002007,0.99745,-0.071338,9.6023e-06,-9.5537e-06,1.0225e-06,1,-0.071338,-0.99745,3.3832e-07,0.00011585,-7.2275e-05,-0.00017812,5.2989e-09,-7.3534e-08,-2.705e-05,-0.0028931,0.0020548,0.00083828,-1.465e-09,7.1536e-09,0.0007114,1,1,40.56,1730.6,0,3000
3.8911e-14,3.8911e-14,0.72611,-21.677,-34.282,-1.6106,0.00031551,-0.0043783,0.14729,30.837,0,0,0,-55.233,699.9,628.52,-34.282,-21.792,0.84131,0.00012465,-9.1034e-06,1,-0.071343,-0.99745,-1.8745e-07,0.99745,-0.071343,-0.00012498,-0.0027773,0.0019826,0.00066016,0.00068435,3.8339e-09,-6.638e-08,0.0028644,-0.00013454,-6.1478e-06,-3.7122e-09,-0.0028017,0.00066016,0.002007,0.99745,-0.071338,9.6023e-06,-9.5537e-06,1.0225e-06,1,-0.071338,-0.99745,3.3832e-07,0.00011585,-7.2275e-05,-0.00017812,5.2989e-09,-7.3534e-08,-2.705e-05,-0.0028931,0.0020548,0.00083828,-1.465e-09,7.1536e-09,0.0007114,1,1,40.62,1730.6,0,3000
3.6271e-14,3.6271e-14,0.72611,-21.677,-34.282,-1.6106,0.00031551,-0.0043783,0.14729,30.837,0,0,0,-55.233,699.9,628.52,-34.282,-21.792,0.84131,0.00012465,-9.1034e-06,1,-0.071343,-0.99745,-1.8745e-07,0.99745,-0.071343,-0.00012498,-0.0027773,0.0019826,0.00066016,0.00068435,3.8339e-09,-6.638e-08,0.0028644,-0.00013454,-6.1478e-06,-3.7122e-09,-0.0028017,0.00066016,0.002007,0.99745,-0.071338,9.6023e-06,-9.5537e-06,1.0225e-06,1,-0.071338,-0.99745,3.3832e-07,0.00011585,-7.2275e-05,-0.00017812,5.2989e-09,-7.3534e-08,-2.705e-05,-0.0028931,0.0020548,0.00083828,-1.465e-09,7.1536e-09,0.0007114,1,1,40.68,1730.7,0,3000
3.3636e-14,3.3636e-14,0.72611,-21.677,-34.282,-1.6106,0.00031551,-0.0043783,0.14729,30.837,0,0,0,-55.233,699.9,628.52,-34.282,-21.792,0.84131,0.00012465,-9.1034e-06,1,-0.071343,-0.99745,-1.8745e-07,0.99745,-0.071343,-0.00012498,-0.0027773,0.0019826,0.00066016,0.00068435,3.8339e-09,-6.638e-08,0.0028644,-0.00013454,-6.1478e-06,-3.7122e-09,-0.0028017,0.00066016,0.002007,0.99745,-0.071338,9.6023e-06,-9.5537e-06,1.0225e-06,1,-0.071338,-0.99745,3.3832e-07,0.00011585,-7.2275e-05,-0.00017812,5.2989e-09,-7.3534e-08,-2.705e-05,-0.0028931,0.0020548,0.00083828,-1.465e-09,7.1536e-09,0.0007114,1,1,40.74,1730.7,0,3000
3.0995e-14,3.0995e-14,0.72611,-21.677,-34.282,-1.6106,0.00031551,-0.0043783,0.14729,30.837,0,0,0,-55.233,699.9,628.52,-34.282,-21.792,0.84131,0.00012465,-9.1034e-06,1,-0.071343,-0.99745,-1.8745e-07,0.99745,-0.071343,-0.00012498,-0.0027773,0.0019826,0.00066016,0.00068435,3.8339e-09,-6.638e-08,0.0028644,-0.00013454,-6.1478e-06,-3.7122e-09,-0.0028017,0.00066016,0.002007,0.99745,-0.071338,9.6023e-06,-9.5537e-06,1.0225e-06,1,-0.071338,-0.99745,3.3832e-07,0.00011585,-7.2275e-05,-0.00017812,5.2989e-09,-7.3534e-08,-2.705e-05,-0.0028931,0.0020548,0.00083828,-1.465e-09,7.1536e-09,0.0007114,1,1,40.8,1730.8,0,3000
2.836e-14,2.836e-14,0.72611,-21.677,-34.282,-1.6106,0.00031551,-0.0043783,0.14729,30.837,0,0,0,-55.233,699.9,628.52,-34.282,-21.792,0.84131,0.00012465,-9.1034e-06,1,-0.071343,-0.99745,-1.8745e-07,0.99745,-0.071343,-0.00012498,-0.0027773,0.0019826,0.00066016,0.00068435,3.8339e-09,-6.638e-08,0.0028644,-0.00013454,-6.1478e-06,-3.7122e-09,-0.0028017,0.00066016,0.002007,0.99745,-0.071338,9.6023e-06,-9.5537e-06,1.0225e-06,1,-0.071338,-0.99745,3.3832e-07,0.00011585,-7.2275e-05,-0.00017812,5.2989e-09,-7.3534e-08,-2.705e-05,-0.0028931,0.0020548,0.00083828,-1.465e-09,7.1536e-09,0.0007114,1,1,40.86,1730.9,0,3000
2.572e-14,2.572e-14,0.72611,-21.677,-34.282,-1.6106,0.00031551,-0.0043783,0.14729,30.837,0,0,0,-55.233,699.9,628.52,-34.282,-21.792,0.84131,0.00012465,-9.1034e-06,1,-0.071343,-0.99745,-1.8745e-07,0.99745,-0.071343,-0.00012498,-0.0027773,0.0019826,0.00066016,0.00068435,3.8339e-09,-6.638e-08,0.0028644,-0.00013454,-6.1478e-06,-3.7122e-09,-0.0028017,0.00066016,0.002007,0.99745,-0.071338,9.6023e-06,-9.5537e-06,1.0225e-06,1,-0.071338,-0.99745,3.3832e-07,0.00011585,-7.2275e-05,-0.00017812,5.2989e-09,-7.3534e-08,-2.705e-05,-0.0028931,0.0020548,0.00083828,-1.465e-09,7.1536e-09,0.0007114,1,1,40.92,1730.9,0,3000
2.3085e-14,2.3085e-14,0.72611,-21.677,-34.282,-1.6106,0.00031551,-0.0043783,0.14729,30.837,0,0,0,-55.233,699.9,628.52,-34.282,-21.792,0.84131,0.00012465,-9.1034e-06,1,-0.071343,-0.99745,-1.8745e-07,0.99745,-0.071343,-0.00012498,-0.0027773,0.0019826,0.00066016,0.00068435,3.8339e-09,-6.638e-08,0.0028644,-0.00013454,-6.1478e-06,-3.7122e-09,-0.0028017,0.00066016,0.002007,0.99745,-0.071338,9.6023e-06,-9.5537e-06,1.0225e-06,1,-0.071338,-0.99745,3.3832e-07,0.00011585,-7.2275e-05,-0.00017812,5.2989e-09,-7.3534e-08,-2.705e-05,-0.0028931,0.0020548,0.00083828,-1.465e-09,7.1536e-09,0.0007114,1,1,40.98,1731,0,3000
1.9991e-14,1.9991e-14,0.67152,-28.34,-41.006,-2.0857,0.00031018,-0.0043088,0.15498,37.184,0,0,0,-68.675,1111.2,958.77,-41.006,-28.489,0.8207,0.00010301,-7.5269e-06,1,-0.071342,-0.99745,-1.5896e-07,0.99745,-0.071342,-0.00010328,-0.002807,0.0019796,0.00066008,0.0006882,1.8758e-09,-4.0877e-08,0.0028823,-0.00016729,-6.2212e-06,-3.746e-09,-0.0028316,0.00066008,0.0020042,0.99745,-0.071338,5.8578e-06,-5.8151e-06,8.0565e-07,1,-0.071338,-0.99745,3.8876e-07,0.00014211,-0.00010152,-0.00020788,5.2094e-09,-7.2366e-08,-3.5029e-05,-0.0029491,0.0020811,0.00086796,-3.3336e-09,3.1489e-08,0.00072323,1,1,41.04,1731,0,3000
1.6677e-14,1.6677e-14,0.67152,-28.34,-41.006,-2.0857,0.00031018,-0.0043088,0.15498,37.184,0,0,0,-68.675,1111.2,958.77,-41.006,-28.489,0.8207,0.00010301,-7.5269e-06,1,-0.071342,-0.99745,-1.5896e-07,0.99745,-0.071342,-0.00010328,-0.002807,0.0019796,0.00066008,0.0006882,1.8758e-09,-4.0877e-08,0.0028823,-0.00016729,-6.2212e-06,-3.746e-09,-0.0028316,0.00066008,0.0020042,0.99745,-0.071338,5.8578e-06,-5.8151e-06,8.0565e-07,1,-0.071338,-0.99745,3.8876e-07,0.00014211,-0.00010152,-0.00020788,5.2094e-09,-7.2366e-08,-3.5029e-05,-0.0029491,0.0020811,0.00086796,-3.3336e-09,3.1489e-08,0.00072323,1,1,41.1,1731.1,0,3000
1.3356e-14,1.3356e-14,0.67152,-28.34,-41.006,-2.0857,0.00031018,-0.0043088,0.15498,37.184,0,0,0,-68.675,1111.2,958.77,-41.006,-28.489,0.8207,0.00010301,-7.5269e-06,1,-0.071342,-0.99745,-1.5896e-07,0.99745,-0.071342,-0.00010328,-0.002807,0.0019796,0.00066008,0.0006882,1.8758e-09,-4.0877e-08,0.0028823,-0.00016729,-6.2212e-06,-3.746e-09,-0.0028316,0.00066008,0.0020042,0.99745,-0.071338,5.8578e-06,-5.8151e-06,8.0565e-07,1,-0.071338,-0.99745,3.8876e-07,0.00014211,-0.00010152,-0.00020788,5.2094e-09,-7.2366e-08,-3.5029e-05,-0.0029491,0.0020811,0.00086796,-3.3336e-09,3.1489e-08,0.00072323,1,1,41.16,1731.2,0,3000
1.0042e-14,1.0042e-14,0.67152,-28.34,-41.006,-2.0857,0.00031018,-0.0043088,0.15498,37.184,0,0,0,-68.675,1111.2,958.77,-41.006,-28.489,0.8207,0.00010301,-7.5269e-06,1,-0.071342,-0.99745,-1.5896e-07,0.99745,-0.071342,-0.00010328,-0.002807,0.0019796,0.00066008,0.0006882,1.8758e-09,-4.0877e-08,0.0028823,-0.00016729,-6.2212e-06,-3.746e-09,-0.0028316,0.00066008,0.0020042,0.99745,-0.071338,5.8578e-06,-5.8151e-06,8.0565e-07,1,-0.071338,-0.99745,3.8876e-07,0.00014211,-0.00010152,-0.00020788,5.2094e-09,-7.2366e-08,-3.5029e-05,-0.0029491,0.0020811,0.00086796,-3.3336e-09,3.1489e-08,0.00072323,1,1,41.22,1731.2,0,3000
6.7219e-15,6.7219e-15,0.67152,-28.34,-41.006,-2.0857,0.00031018,-0.0043088,0.15498,37.184,0,0,0,-68.675,1111.2,958.77,-41.006,-28.489,0.8207,0.00010301,-7.5269e-06,1,-0.071342,-0.99745,-1.5896e-07,0.99745,-0.071342,-0.00010328,-0.002807,0.0019796,0.00066008,0.0006882,1.8758e-09,-4.0877e-08,0.0028823,-0.00016729,-6.2212e-06,-3.746e-09,-0.0028316,0.00066008,0.0020042,0.99745,-0.071338,5.8578e-06,-5.8151e-06,8.0565e-07,1,-0.071338,-0.99745,3.8876e-07,0.00014211,-0.00010152,-0.00020788,5.2094e-09,-7.2366e-08,-3.5029e-05,-0.0029491,0.0020811,0.00086796,-3.3336e-09,3.1489e-08,0.00072323,1,1,41.28,1731.3,0,3000
3.4081e-15,3.4081e-15,0.67152,-28.34,-41.006,-2.0857,0.00031018,-0.0043088,0.15498,37.184,0,0,0,-68.675,1111.2,958.77,-41.006,-28.489,0.8207,0.00010301,-7.5269e-06,1,-0.071342,-0.99745,-1.5896e-07,0.99745,-0.071342,-0.00010328,-0.002807,0.0019796,0.00066008,0.0006882,1.8758e-09,-4.0877e-08,0.0028823,-0.00016729,-6.2212e-06,-3.746e-09,-0.0028316,0.00066008,0.0020042,0.99745,-0.071338,5.8578e-06,-5.8151e-06,8.0565e-07,1,-0.071338,-0.99745,3.8876e-07,0.00014211,-0.00010152,-0.00020788,5.2094e-09,-7.2366e-08,-3.5029e-05,-0.0029491,0.0020811,0.00086796,-3.3336e-09,3.1489e-08,0.00072323,1,1,41.34,1731.3,0,3000
8.7468e-17,8.7468e-17,0.67152,-28.34,-41.006,-2.0857,0.00031018,-0.0043088,0.15498,37.184,0,0,0,-68.675,1111.2,958.77,-41.006,-28.489,0.8207,0.00010301,-7.5269e-06,1,-0.071342,-0.99745,-1.5896e-07,0.99745,-0.071342,-0.00010328,-0.002807,0.0019796,0.00066008,0.0006882,1.8758e-09,-4.0877e-08,0.0028823,-0.00016729,-6.2212e-06,-3.746e-09,-0.0028316,0.00066008,0.0020042,0.99745,-0.071338,5.8578e-06,-5.8151e-06,8.0565e-07,1,-0.071338,-0.99745,3.8876e-07,0.00014211,-0.00010152,-0.00020788,5.2094e-09,-7.2366e-08,-3.5029e-05,-0.0029491,0.0020811,0.00086796,-3.3336e-09,3.1489e-08,0.00072323,1,1,41.4,1731.4,0,3000
-3.2264e-15,-3.2264e-15,0.67152,-28.34,-41.006,-2.0857,0.00031018,-0.0043088,0.15498,37.184,0,0,0,-68.675,1111.2,958.77,-41.006,-28.489,0.8207,0.00010301,-7.5269e-06,1,-0.071342,-0.99745,-1.5896e-07,0.99745,-0.071342,-0.00010328,-0.002807,0.0019796,0.00066008,0.0006882,1.8758e-09,-4.0877e-08,0.0028823,-0.00016729,-6.2212e-06,-3.746e-09,-0.0028316,0.00066008,0.0020042,0.99745,-0.071338,5.8578e-06,-5.8151e-06,8.0565e-07,1,-0.071338,-0.99745,3.8876e-07,0.00014211,-0.00010152,-0.00020788,5.2094e-09,-7.2366e-08,-3.5029e-05,-0.0029491,0.0020811,0.00086796,-3.3336e-09,3.1489e-08,0.00072323,1,1,41.46,1731.5,0,3000
-6.547e-15,-6.547e-15,0.67152,-28.34,-41.006,-2.0857,0.00031018,-0.0043088,0.15498,37.184,0,0,0,-68.675,1111.2,958.77,-41.006,-28.489,0.8207,0.00010301,-7.5269e-06,1,-0.071342,-0.99745,-1.5896e-07,0.99745,-0.071342,-0.00010328,-0.002807,0.0019796,0.00066008,0.0006882,1.8758e-09,-4.0877e-08,0.0028823,-0.00016729,-6.2212e-06,-3.746e-09,-0.0028316,0.00066008,0.0020042,0.99745,-0.071338,5.8578e-06,-5.8151e-06,8.0565e-07,1,-0.071338,-0.99745,3.8876e-07,0.00014211,-0.00010152,-0.00020788,5.2094e-09,-7.2366e-08,-3.5029e-05,-0.0029491,0.0020811,0.00086796,-3.3336e-09,3.1489e-08,0.00072323,1,1,41.52,1731.5,0,3000
-9.8608e-15,-9.8608e-15,0.67152,-28.34,-41.006,-2.0857,0.00031018,-0.0043088,0.15498,37.184,0,0,0,-68.675,1111.2,958.77,-41.006,-28.489,0.8207,0.00010301,-7.5269e-06,1,-0.071342,-0.99745,-1.5896e-07,0.99745,-0.071342,-0.00010328,-0.002807,0.0019796,0.00066008,0.0006882,1.8758e-09,-4.0877e-08,0.0028823,-0.00016729,-6.2212e-06,-3.746e-09,-0.0028316,0.00066008,0.0020042,0.99745,-0.071338,5.8578e-06,-5.8151e-06,8.0565e-07,1,-0.071338,-0.99745,3.8876e-07,0.00014211,-0.00010152,-0.00020788,5.2094e-09,-7.2366e-08,-3.5029e-05,-0.0029491,0.0020811,0.00086796,-3.3336e-09,3.1489e-08,0.00072323,1,1,41.58,1731.6,0,3000
-1.3181e-14,-1.3181e-14,0.67152,-28.34,-41.006,-2.0857,0.00031018,-0.0043088,0.15498,37.184,0,0,0,-68.675,1111.2,958.77,-41.006,-28.489,0.8207,0.00010301,-7.5269e-06,1,-0.071342,-0.99745,-1.5896e-07,0.99745,-0.071342,-0.00010328,-0.002807,0.0019796,0.00066008,0.0006882,1.8758e-09,-4.0877e-08,0.0028823,-0.00016729,-6.2212e-06,-3.746e-09,-0.0028316,0.00066008,0.0020042,0.99745,-0.071338,5.8578e-06,-5.8151e-06,8.0565e-07,1,-0.071338,-0.99745,3.8876e-07,0.00014211,-0.00010152,-0.00020788,5.2094e-09,-7.2366e-08,-3.5029e-05,-0.0029491,0.0020811,0.00086796,-3.3336e-09,3.1489e-08,0.00072323,1,1,41.64,1731.6,0,3000
-1.6495e-14,-1.6495e-14,0.67152,-28.34,-41.006,-2.0857,0.00031018,-0.0043088,0.15498,37.184,0,0,0,-68.675,1111.2,958.77,-41.006,-28.489,0.8207,0.00010301,-7.5269e-06,1,-0.071342,-0.99745,-1.5896e-07,0.99745,-0.071342,-0.00010328,-0.002807,0.0019796,0.00066008,0.0006882,1.8758e-09,-4.0877e-08,0.0028823,-0.00016729,-6.2212e-06,-3.746e-09,-0.0028316,0.00066008,0.0020042,0.99745,-0.071338,5.8578e-06,-5.8151e-06,8.0565e-07,1,-0.071338,-0.99745,3.8876e-07,0.00014211,-0.00010152,-0.00020788,5.2094e-09,-7.2366e-08,-3.5029e-05,-0.0029491,0.0020811,0.00086796,-3.3336e-09,3.1489e-08,0.00072323,1,1,41.7,1731.7,0,3000
-1.9816e-14,-1.9816e-14,0.67152,-28.34,-41.006,-2.0857,0.00031018,-0.0043088,0.15498,37.184,0,0,0,-68.675,1111.2,958.77,-41.006,-28.489,0.8207,0.00010301,-7.5269e-06,1,-0.071342,-0.99745,-1.5896e-07,0.99745,-0.071342,-0.00010328,-0.002807,0.0019796,0.00066008,0.0006882,1.8758e-09,-4.0877e-08,0.0028823,-0.00016729,-6.2212e-06,-3.746e-09,-0.0028316,0.00066008,0.0020042,0.99745,-0.071338,5.8578e-06,-5.8151e-06,8.0565e-07,1,-0.071338,-0.99745,3.8876e-07,0.00014211,-0.00010152,-0.00020788,5.2094e-09,-7.2366e-08,-3.5029e-05,-0.0029491,0.0020811,0.00086796,-3.3336e-09,3.1489e-08,0.00072323,1,1,41.76,1731.8,0,3000
-2.313e-14,-2.313e-14,0.67152,-28.34,-41.006,-2.0857,0.00031018,-0.0043088,0.15498,37.184,0,0,0,-68.675,1111.2,958.77,-41.006,-28.489,0.8207,0.00010301,-7.5269e-06,1,-0.071342,-0.99745,-1.5896e-07,0.99745,-0.071342,-0.00010328,-0.002807,0.0019796,0.00066008,0.0006882,1.8758e-09,-4.0877e-08,0.0028823,-0.00016729,-6.2212e-06,-3.746e-09,-0.0028316,0.00066008,0.0020042,0.99745,-0.071338,5.8578e-06,-5.8151e-06,8.0565e-07,1,-0.071338,-0.99745,3.8876e-07,0.00014211,-0.00010152,-0.00020788,5.2094e-09,-7.2366e-08,-3.5029e-05,-0.0029491,0.0020811,0.00086796,-3.3336e-09,3.1489e-08,0.00072323,1,1,41.82,1731.8,0,3000
-2.645e-14,-2.645e-14,0.67152,-28.34,-41.006,-2.0857,0.00031018,-0.0043088,0.15498,37.184,0,0,0,-68.675,1111.2,958.77,-41.006,-28.489,0.8207,0.00010301,-7.5269e-06,1,-0.071342,-0.99745,-1.5896e-07,0.99745,-0.071342,-0.00010328,-0.002807,0.0019796,0.00066008,0.0006882,1.8758e-09,-4.0877e-08,0.0028823,-0.00016729,-6.2212e-06,-3.746e-09,-0.0028316,0.00066008,0.0020042,0.99745,-0.071338,5.8578e-06,-5.8151e-06,8.0565e-07,1,-0.071338,-0.99745,3.8876e-07,0.00014211,-0.00010152,-0.00020788,5.2094e-09,-7.2366e-08,-3.5029e-05,-0.0029491,0.0020811,0.00086796,-3.3336e-09,3.1489e-08,0.00072323,1,1,41.88,1731.9,0,3000
-2.9764e-14,-2.9764e-14,0.67152,-28.34,-41.006,-2.0857,0.00031018,-0.0043088,0.15498,37.184,0,0,0,-68.675,1111.2,958.77,-41.006,-28.489,0.8207,0.00010301,-7.5269e-06,1,-0.071342,-0.99745,-1.5896e-07,0.99745,-0.071342,-0.00010328,-0.002807,0.0019796,0.00066008,0.0006882,1.8758e-09,-4.0877e-08,0.0028823,-0.00016729,-6.2212e-06,-3.746e-09,-0.0028316,0.00066008,0.0020042,0.99745,-0.071338,5.8578e-06,-5.8151e-06,8.0565e-07,1,-0.071338,-0.99745,3.8876e-07,0.00014211,-0.00010152,-0.00020788,5.2094e-09,-7.2366e-08,-3.5029e-05,-0.0029491,0.0020811,0.00086796,-3.3336e-09,3.1489e-08,0.00072323,1,1,41.94,1731.9,0,3000
-3.3085e-14,-3.3085e-14,0.61269,-35,-47.729,-2.5602,0.00030425,-0.0042326,0.1631,43.627,0,0,0,-82.116,1613.3,1336.4,-47.729,-35.183,0.7958,8.7219e-05,-6.3595e-06,1,-0.071341,-0.99745,-1.2101e-07,0.99745,-0.071341,-8.745e-05,-0.0028367,0.0019767,0.00066,0.00069204,5.9699e-10,-2.54e-08,0.0029001,-0.00020003,-6.2945e-06,-3.7797e-09,-0.0028614,0.00066,0.0020014,0.99745,-0.071338,3.6033e-06,-3.5618e-06,7.0933e-07,1,-0.071338,-0.99745,4.5344e-07,0.00016832,-0.00013073,-0.00023762,5.1099e-09,-7.1086e-08,-4.2999e-05,-0.003005,0.0021074,0.00089762,-4.5129e-09,4.5686e-08,0.00073504,1,1,42,1732,0,3000
-2.7884e-14,-2.7884e-14,0.61269,-35,-47.729,-2.5602,0.00030425,-0.0042326,0.1631,43.627,0,0,0,-82.116,1613.3,1336.4,-47.729,-35.183,0.7958,8.7219e-05,-6.3595e-06,1,-0.071341,-0.99745,-1.2101e-07,0.99745,-0.071341,-8.745e-05,-0.0028367,0.0019767,0.00066,0.00069204,5.9699e-10,-2.54e-08,0.0029001,-0.00020003,-6.2945e-06,-3.7797e-09,-0.0028614,0.00066,0.0020014,0.99745,-0.071338,3.6033e-06,-3.5618e-06,7.0933e-07,1,-0.071338,-0.99745,4.5344e-07,0.00016832,-0.00013073,-0.00023762,5.1099e-09,-7.1086e-08,-4.2999e-05,-0.003005,0.0021074,0.00089762,-4.5129e-09,4.5686e-08,0.00073504,1,1,42.06,1732.1,0,3000
-2.2693e-14,-2.2693e-14,0.61269,-35,-47.729,-2.5602,0.00030425,-0.0042326,0.1631,43.627,0,0,0,-82.116,1613.3,1336.4,-47.729,-35.183,0.7958,8.7219e-05,-6.3595e-06,1,-0.071341,-0.99745,-1.2101e-07,0.99745,-0.071341,-8.745e-05,-0.0028367,0.0019767,0.00066,0.00069204,5.9699e-10,-2.54e-08,0.0029001,-0.00020003,-6.2945e-06,-3.7797e-09,-0.0028614,0.00066,0.0020014,0.99745,-0.071338,3.6033e-06,-3.5618e-06,7.0933e-07,1,-0.071338,-0.99745,4.5344e-07,0.00016832,-0.00013073,-0.00023762,5.1099e-09,-7.1086e-08,-4.2999e-05,-0.003005,0.0021074,0.00089762,-4.5129e-09,4.5686e-08,0.00073504,1,1,42.12,1732.1,0,3000
-1.7492e-14,-1.7492e-14,0.61269,-35,-47.729,-2.5602,0.00030425,-0.0042326,0.1631,43.627,0,0,0,-82.116,1613.3,1336.4,-47.729,-35.183,0.7958,8.7219e-05,-6.3595e-06,1,-0.071341,-0.99745,-1.2101e-07,0.99745,-0.071341,-8.745e-05,-0.0028367,0.0019767,0.00066,0.00069204,5.9699e-10,-2.54e-08,0.0029001,-0.00020003,-6.2945e-06,-3.7797e-09,-0.0028614,0.00066,0.0020014,0.99745,-0.071338,3.6033e-06,-3.5618e-06,7.0933e-07,1,-0.071338,-0.99745,4.5344e-07,0.00016832,-0.00013073,-0.00023762,5.1099e-09,-7.1086e-08,-4.2999e-05,-0.003005,0.0021074,0.00089762,-4.5129e-09,4.5686e-08,0.00073504,1,1,42.18,1732.2,0,3000
-1.2302e-14,-1.2302e-14,0.61269,-35,-47.729,-2.5602,0.00030425,-0.0042326,0.1631,43.627,0,0,0,-82.116,1613.3,1336.4,-47.729,-35.183,0.7958,8.7219e-05,-6.3595e-06,1,-0.071341,-0.99745,-1.2101e-07,0.99745,-0.071341,-8.745e-05,-0.0028367,0.0019767,0.00066,0.00069204,5.9699e-10,-2.54e-08,0.0029001,-0.00020003,-6.2945e-06,-3.7797e-09,-0.0028614,0.00066,0.0020014,0.99745,-0.071338,3.6033e-06,-3.5618e-06,7.0933e-07,1,-0.071338,-0.99745,4.5344e-07,0.00016832,-0.00013073,-0.00023762,5.1099e-09,-7.1086e-08,-4.2999e-05,-0.003005,0.0021074,0.00089762,-4.5129e-09,4.5686e-08,0.00073504,1,1,42.24,1732.2,0,3000
-7.1012e-15,-7.1012e-15,0.61269,-35,-47.729,-2.5602,0.00030425,-0.0042326,0.1631,43.627,0,0,0,-82.116,1613.3,1336.4,-47.729,-35.183,0.7958,8.7219e-05,-6.3595e-06,1,-0.071341,-0.99745,-1.2101e-07,0.99745,-0.071341,-8.745e-05,-0.0028367,0.0019767,0.00066,0.00069204,5.9699e-10,-2.54e-08,0.0029001,-0.00020003,-6.2945e-06,-3.7797e-09,-0.0028614,0.00066,0.0020014,0.99745,-0.071338,3.6033e-06,-3.5618e-06,7.0933e-07,1,-0.071338,-0.99745,4.5344e-07,0.00016832,-0.00013073,-0.00023762,5.1099e-09,-7.1086e-08,-4.2999e-05,-0.003005,0.0021074,0.00089762,-4.5129e-09,4.5686e-08,0.00073504,1,1,42.3,1732.3,0,3000
-1.9109e-15,-1.9109e-15,0.61269,-35,-47.729,-2.5602,0.00030425,-0.0042326,0.1631,43.627,0,0,0,-82.116,1613.3,1336.4,-47.729,-35.183,0.7958,8.7219e-05,-6.3595e-06,1,-0.071341,-0.99745,-1.2101e-07,0.99745,-0.071341,-8.745e-05,-0.0028367,0.0019767,0.00066,0.00069204,5.9699e-10,-2.54e-08,0.0029001,-0.00020003,-6.2945e-06,-3.7797e-09,-0.0028614,0.00066,0.0020014,0.99745,-0.071338,3.6033e-06,-3.5618e-06,7.0933e-07,1,-0.071338,-0.99745,4.5344e-07,0.00016832,-0.00013073,-0.00023762,5.1099e-09,-7.1086e-08,-4.2999e-05,-0.003005,0.0021074,0.00089762,-4.5129e-09,4.5686e-08,0.00073504,1,1,42.36,1732.4,0,3000
3.2901e-15,3.2901e-15,0.61269,-35,-47.729,-2.5602,0.00030425,-0.0042326,0.1631,43.627,0,0,0,-82.116,1613.3,1336.4,-47.729,-35.183,0.7958,8.7219e-05,-6.3595e-06,1,-0.071341,-0.99745,-1.2101e-07,0.99745,-0.071341,-8.745e-05,-0.0028367,0.0019767,0.00066,0.00069204,5.9699e-10,-2.54e-08,0.0029001,-0.00020003,-6.2945e-06,-3.7797e-09,-0.0028614,0.00066,0.0020014,0.99745,-0.071338,3.6033e-06,-3.5618e-06,7.0933e-07,1,-0.071338,-0.99745,4.5344e-07,0.00016832,-0.00013073,-0.00023762,5.1099e-09,-7.1086e-08,-4.2999e-05,-0.003005,0.0021074,0.00089762,-4.5129e-09,4.5686e-08,0.00073504,1,1,42.42,1732.4,0,3000
8.4804e-15,8.4804e-15,0.61269,-35,-47.729,-2.5602,0.00030425,-0.0042326,0.1631,43.627,0,0,0,-82.116,1613.3,1336.4,-47.729,-35.183,0.7958,8.7219e-05,-6.3595e-06,1,-0.071341,-0.99745,-1.2101e-07,0.99745,-0.071341,-8.745e-05,-0.0028367,0.0019767,0.00066,0.00069204,5.9699e-10,-2.54e-08,0.0029001,-0.00020003,-6.2945e-06,-3.7797e-09,-0.0028614,0.00066,0.0020014,0.99745,-0.071338,3.6033e-06,-3.5618e-06,7.0933e-07,1,-0.071338,-0.99745,4.5344e-07,0.00016832,-0.00013073,-0.00023762,5.1099e-09,-7.1086e-08,-4.2999e-05,-0.003005,0.0021074,0.00089762,-4.5129e-09,4.5686e-08,0.00073504,1,1,42.48,1732.5,0,3000
1.3681e-14,1.3681e-14,0.61269,-35,-47.729,-2.5602,0.00030425,-0.0042326,0.1631,43.627,0,0,0,-82.116,1613.3,1336.4,-47.729,-35.183,0.7958,8.7219e-05,-6.3595e-06,1,-0.071341,-0.99745,-1.2101e-07,0.99745,-0.071341,-8.745e-05,-0.0028367,0.0019767,0.00066,0.00069204,5.9699e-10,-2.54e-08,0.0029001,-0.00020003,-6.2945e-06,-3.7797e-09,-0.0028614,0.00066,0.0020014,0.99745,-0.071338,3.6033e-06,-3.5618e-06,7.0933e-07,1,-0.071338,-0.99745,4.5344e-07,0.00016832,-0.00013073,-0.00023762,5.1099e-09,-7.1086e-08,-4.2999e-05,-0.003005,0.0021074,0.00089762,-4.5129e-09,4.5686e-08,0.00073504,1,1,42.54,1732.5,0,3000
1.8872e-14,1.8872e-14,0.61269,-35,-47.729,-2.5602,0.00030425,-0.0042326,0.1631,43.627,0,0,0,-82.116,1613.3,1336.4,-47.729,-35.183,0.7958,8.7219e-05,-6.3595e-06,1,-0.071341,-0.99745,-1.2101e-07,0.99745,-0.071341,-8.745e-05,-0.0028367,0.0019767,0.00066,0.00069204,5.9699e-10,-2.54e-08,0.0029001,-0.00020003,-6.2945e-06,-3.7797e-09,-0.0028614,0.00066,0.0020014,0.99745,-0.071338,3.6033e-06,-3.5618e-06,7.0933e-07,1,-0.071338,-0.99745,4.5344e-07,0.00016832,-0.00013073,-0.00023762,5.1099e-09,-7.1086e-08,-4.2999e-05,-0.003005,0.0021074,0.00089762,-4.5129e-09,4.5686e-08,0.00073504,1,1,42.6,1732.6,0,3000
2.4073e-14,2.4073e-14,0.61269,-35,-47.729,-2.5602,0.00030425,-0.0042326,0.1631,43.627,0,0,0,-82.116,1613.3,1336.4,-47.729,-35.183,0.7958,8.7219e-05,-6.3595e-06,1,-0.071341,-0.99745,-1.2101e-07,0.99745,-0.071341,-8.745e-05,-0.0028367,0.0019767,0.00066,0.00069204,5.9699e-10,-2.54e-08,0.0029001,-0.00020003,-6.2945e-06,-3.7797e-09,-0.0028614,0.00066,0.0020014,0.99745,-0.071338,3.6033e-06,-3.5618e-06,7.0933e-07,1,-0.071338,-0.99745,4.5344e-07,0.00016832,-0.00013073,-0.00023762,5.1099e-09,-7.1086e-08,-4.2999e-05,-0.003005,0.0021074,0.00089762,-4.5129e-09,4.5686e-08,0.00073504,1,1,42.66,1732.7,0,3000
2.9263e-14,2.9263e-14,0.61269,-35,-47.729,-2.5602,0.00030425,-0.0042326,0.1631,43.627,0,0,0,-82.116,1613.3,1336.4,-47.729,-35.183,0.7958,8.7219e-05,-6.3595e-06,1,-0.071341,-0.99745,-1.2101e-07,0.99745,-0.071341,-8.745e-05,-0.0028367,0.0019767,0.00066,0.00069204,5.9699e-10,-2.54e-08,0.0029001,-0.00020003,-6.2945e-06,-3.7797e-09,-0.0028614,0.00066,0.0020014,0.99745,-0.071338,3.6033e-06,-3.5618e-06,7.0933e-07,1,-0.071338,-0.99745,4.5344e-07,0.00016832,-0.00013073,-0.00023762,5.1099e-09,-7.1086e-08,-4.2999e-05,-0.003005,0.0021074,0.00089762,-4.5129e-09,4.5686e-08,0.00073504,1,1,42.72,1732.7,0,3000
3.4464e-14,3.4464e-14,0.61269,-35,-47.729,-2.5602,0.00030425,-0.0042326,0.1631,43.627,0,0,0,-82.116,1613.3,1336.4,-47.729,-35.183,0.7958,8.7219e-05,-6.3595e-06,1,-0.071341,-0.99745,-1.2101e-07,0.99745,-0.071341,-8.745e-05,-0.0028367,0.0019767,0.00066,0.00069204,5.9699e-10,-2.54e-08,0.0029001,-0.00020003,-6.2945e-06,-3.7797e-09,-0.0028614,0.00066,0.0020014,0.99745,-0.071338,3.6033e-06,-3.5618e-06,7.0933e-07,1,-0.071338,-0.99745,4.5344e-07,0.00016832,-0.00013073,-0.00023762,5.1099e-09,-7.1086e-08,-4.2999e-05,-0.003005,0.0021074,0.00089762,-4.5129e-09,4.5686e-08,0.00073504,1,1,42.78,1732.8,0,3000
3.9654e-14,3.9654e-14,0.61269,-35,-47.729,-2.5602,0.00030425,-0.0042326,0.1631,43.627,0,0,0,-82.116,1613.3,1336.4,-47.729,-35.183,0.7958,8.7219e-05,-6.3595e-06,1,-0.071341,-0.99745,-1.2101e-07,0.99745,-0.071341,-8.745e-05,-0.0028367,0.0019767,0.00066,0.00069204,5.9699e-10,-2.54e-08,0.0029001,-0.00020003,-6.2945e-06,-3.7797e-09,-0.0028614,0.00066,0.0020014,0.99745,-0.071338,3.6033e-06,-3.5618e-06,7.0933e-07,1,-0.071338,-0.99745,4.5344e-07,0.00016832,-0.00013073,-0.00023762,5.1099e-09,-7.1086e-08,-4.2999e-05,-0.003005,0.0021074,0.00089762,-4.5129e-09,4.5686e-08,0.00073504,1,1,42.84,1732.8,0,3000
4.4855e-14,4.4855e-14,0.61269,-35,-47.729,-2.5602,0.00030425,-0.0042326,0.1631,43.627,0,0,0,-82.116,1613.3,1336.4,-47.729,-35.183,0.7958,8.7219e-05,-6.3595e-06,1,-0.071341,-0.99745,-1.2101e-07,0.99745,-0.071341,-8.745e-05,-0.0028367,0.0019767,0.00066,0.00069204,5.9699e-10,-2.54e-08,0.0029001,-0.00020003,-6.2945e-06,-3.7797e-09,-0.0028614,0.00066,0.0020014,0.99745,-0.071338,3.6033e-06,-3.5618e-06,7.0933e-07,1,-0.071338,-0.99745,4.5344e-07,0.00016832,-0.00013073,-0.00023762,5.1099e-09,-7.1086e-08,-4.2999e-05,-0.003005,0.0021074,0.00089762,-4.5129e-09,4.5686e-08,0.00073504,1,1,42.9,1732.9,0,3000
5.0045e-14,5.0045e-14,0.61269,-35,-47.729,-2.5602,0.00030425,-0.0042326,0.1631,43.627,0,0,0,-82.116,1613.3,1336.4,-47.729,-35.183,0.7958,8.7219e-05,-6.3595e-06,1,-0.071341,-0.99745,-1.2101e-07,0.99745,-0.071341,-8.745e-05,-0.0028367,0.0019767,0.00066,0.00069204,5.9699e-10,-2.54e-08,0.0029001,-0.00020003,-6.2945e-06,-3.7797e-09,-0.0028614,0.00066,0.0020014,0.99745,-0.071338,3.6033e-06,-3.5618e-06,7.0933e-07,1,-0.071338,-0.99745,4.5344e-07,0.00016832,-0.00013073,-0.00023762,5.1099e-09,-7.1086e-08,-4.2999e-05,-0.003005,0.0021074,0.00089762,-4.5129e-09,4.5686e-08,0.00073504,1,1,42.96,1733,0,3000
5.2515e-14,5.2515e-14,0.55046,-41.655,-54.448,-3.0342,0.00029705,-0.0041393,0.17163,50.125,0,0,0,-95.552,2205.9,1749.7,-54.448,-41.872,0.76747,7.4962e-05,-5.4402e-06,1,-0.071341,-0.99745,-7.8482e-08,0.99745,-0.071341,-7.5159e-05,-0.0028664,0.0019737,0.00065991,0.00069588,5.3484e-10,-2.773e-08,0.0029179,-0.00023276,-6.3675e-06,-3.8132e-09,-0.0028912,0.00065991,0.0019986,0.99745,-0.071338,3.8997e-06,-3.8513e-06,8.1643e-07,1,-0.071338,-0.99745,5.3961e-07,0.0001945,-0.00015991,-0.00026735,4.9889e-09,-6.9519e-08,-5.0958e-05,-0.0030609,0.0021336,0.00092726,-4.454e-09,4.179e-08,0.00074684,1,1,43.02,1733,0,3000
4.9527e-14,4.9527e-14,0.55046,-41.655,-54.448,-3.0342,0.00029705,-0.0041393,0.17163,50.125,0,0,0,-95.552,2205.9,1749.7,-54.448,-41.872,0.76747,7.4962e-05,-5.4402e-06,1,-0.071341,-0.99745,-7.8482e-08,0.99745,-0.071341,-7.5159e-05,-0.0028664,0.0019737,0.00065991,0.00069588,5.3484e-10,-2.773e-08,0.0029179,-0.00023276,-6.3675e-06,-3.8132e-09,-0.0028912,0.00065991,0.0019986,0.99745,-0.071338,3.8997e-06,-3.8513e-06,8.1643e-07,1,-0.071338,-0.99745,5.3961e-07,0.0001945,-0.00015991,-0.00026735,4.9889e-09,-6.9519e-08,-5.0958e-05,-0.0030609,0.0021336,0.00092726,-4.454e-09,4.179e-08,0.00074684,1,1,43.08,1733.1,0,3000
4.6533e-14,4.6533e-14,0.55046,-41.655,-54.448,-3.0342,0.00029705,-0.0041393,0.17163,50.125,0,0,0,-95.552,2205.9,1749.7,-54.448,-41.872,0.76747,7.4962e-05,-5.4402e-06,1,-0.071341,-0.99745,-7.8482e-08,0.99745,-0.071341,-7.5159e-05,-0.0028664,0.0019737,0.00065991,0.00069588,5.3484e-10,-2.773e-08,0.0029179,-0.00023276,-6.3675e-06,-3.8132e-09,-0.0028912,0.00065991,0.0019986,0.99745,-0.071338,3.8997e-06,-3.8513e-06,8.1643e-07,1,-0.071338,-0.99745,5.3961e-07,0.0001945,-0.00015991,-0.00026735,4.9889e-09,-6.9519e-08,-5.0958e-05,-0.0030609,0.0021336,0.00092726,-4.454e-09,4.179e-08,0.00074684,1,1,43.14,1733.1,0,3000
4.3545e-14,4.3545e-14,0.55046,-41.655,-54.448,-3.0342,0.00029705,-0.0041393,0.17163,50.125,0,0,0,-95.552,2205.9,1749.7,-54.448,-41.872,0.76747,7.4962e-05,-5.4402e-06,1,-0.071341,-0.99745,-7.8482e-08,0.99745,-0.071341,-7.5159e-05,-0.0028664,0.0019737,0.00065991,0.00069588,5.3484e-10,-2.773e-08,0.0029179,-0.00023276,-6.3675e-06,-3.8132e-09,-0.0028912,0.00065991,0.0019986,0.99745,-0.071338,3.8997e-06,-3.8513e-06,8.1643e-07,1,-0.071338,-0.99745,5.3961e-07,0.0001945,-0.00015991,-0.00026735,4.9889e-09,-6.9519e-08,-5.0958e-05,-0.0030609,0.0021336,0.00092726,-4.454e-09,4.179e-08,0.00074684,1,1,43.2,1733.2,0,3000
4.0552e-14,4.0552e-14,0.55046,-41.655,-54.448,-3.0342,0.00029705,-0.0041393,0.17163,50.125,0,0,0,-95.552,2205.9,1749.7,-54.448,-41.872,0.76747,7.4962e-05,-5.4402e-06,1,-0.071341,-0.99745,-7.8482e-08,0.99745,-0.071341,-7.5159e-05,-0.0028664,0.0019737,0.00065991,0.00069588,5.3484e-10,-2.773e-08,0.0029179,-0.00023276,-6.3675e-06,-3.8132e-09,-0.0028912,0.00065991,0.0019986,0.99745,-0.071338,3.8997e-06,-3.8513e-06,8.1643e-07,1,-0.071338,-0.99745,5.3961e-07,0.0001945,-0.00015991,-0.00026735,4.9889e-09,-6.9519e-08,-5.0958e-05,-0.0030609,0.0021336,0.00092726,-4.454e-09,4.179e-08,0.00074684,1,1,43.26,1733.3,0,3000
3.7564e-14,3.7564e-14,0.55046,-41.655,-54.448,-3.0342,0.00029705,-0.0041393,0.17163,50.125,0,0,0,-95.552,2205.9,1749.7,-54.448,-41.872,0.76747,7.4962e-05,-5.4402e-06,1,-0.071341,-0.99745,-7.8482e-08,0.99745,-0.071341,-7.5159e-05,-0.0028664,0.0019737,0.00065991,0.00069588,5.3484e-10,-2.773e-08,0.0029179,-0.00023276,-6.3675e-06,-3.8132e-09,-0.0028912,0.00065991,0.0019986,0.99745,-0.071338,3.8997e-06,-3.8513e-06,8.1643e-07,1,-0.071338,-0.99745,5.3961e-07,0.0001945,-0.00015991,-0.00026735,4.9889e-09,-6.9519e-08,-5.0958e-05,-0.0030609,0.0021336,0.00092726,-4.454e-09,4.179e-08,0.00074684,1,1,43.32,1733.3,0,3000
3.457e-14,3.457e-14,0.55046,-41.655,-54.448,-3.0342,0.00029705,-0.0041393,0.17163,50.125,0,0,0,-95.552,2205.9,1749.7,-54.448,-41.872,0.76747,7.4962e-05,-5.4402e-06,1,-0.071341,-0.99745,-7.8482e-08,0.99745,-0.071341,-7.5159e-05,-0.0028664,0.0019737,0.00065991,0.00069588,5.3484e-10,-2.773e-08,0.0029179,-0.00023276,-6.3675e-06,-3.8132e-09,-0.0028912,0.00065991,0.0019986,0.99745,-0.071338,3.8997e-06,-3.8513e-06,8.1643e-07,1,-0.071338,-0.99745,5.3961e-07,0.0001945,-0.00015991,-0.00026735,4.9889e-09,-6.9519e-08,-5.0958e-05,-0.0030609,0.0021336,0.00092726,-4.454e-09,4.179e-08,0.00074684,1,1,43.38,1733.4,0,3000
3.1582e-14,3.1582e-14,0.55046,-41.655,-54.448,-3.0342,0.00029705,-0.0041393,0.17163,50.125,0,0,0,-95.552,2205.9,1749.7,-54.448,-41.872,0.76747,7.4962e-05,-5.4402e-06,1,-0.071341,-0.99745,-7.8482e-08,0.99745,-0.071341,-7.5159e-05,-0.0028664,0.0019737,0.00065991,0.00069588,5.3484e-10,-2.773e-08,0.0029179,-0.00023276,-6.3675e-06,-3.8132e-09,-0.0028912,0.00065991,0.0019986,0.99745,-0.071338,3.8997e-06,-3.8513e-06,8.1643e-07,1,-0.071338,-0.99745,5.3961e-07,0.0001945,-0.00015991,-0.00026735,4.9889e-09,-6.9519e-08,-5.0958e-05,-0.0030609,0.0021336,0.00092726,-4.454e-09,4.179e-08,0.00074684,1,1,43.44,1733.4,0,3000
2.8588e-14,2.8588e-14,0.55046,-41.655,-54.448,-3.0342,0.00029705,-0.0041393,0.17163,50.125,0,0,0,-95.552,2205.9,1749.7,-54.448,-41.872,0.76747,7.4962e-05,-5.4402e-06,1,-0.071341,-0.99745,-7.8482e-08,0.99745,-0.071341,-7.5159e-05,-0.0028664,0.0019737,0.00065991,0.00069588,5.3484e-10,-2.773e-08,0.0029179,-0.00023276,-6.3675e-06,-3.8132e-09,-0.0028912,0.00065991,0.0019986,0.99745,-0.071338,3.8997e-06,-3.8513e-06,8.1643e-07,1,-0.071338,-0.99745,5.3961e-07,0.0001945,-0.00015991,-0.00026735,4.9889e-09,-6.9519e-08,-5.0958e-05,-0.0030609,0.0021336,0.00092726,-4.454e-09,4.179e-08,0.00074684,1,1,43.5,1733.5,0,3000
2.5594e-14,2.5594e-14,0.55046,-41.655,-54.448,-3.0342,0.00029705,-0.0041393,0.17163,50.125,0,0,0,-95.552,2205.9,1749.7,-54.448,-41.872,0.76747,7.4962e-05,-5.4402e-06,1,-0.071341,-0.99745,-7.8482e-08,0.99745,-0.071341,-7.5159e-05,-0.0028664,0.0019737,0.00065991,0.00069588,5.3484e-10,-2.773e-08,0.0029179,-0.00023276,-6.3675e-06,-3.8132e-09,-0.0028912,0.00065991,0.0019986,0.99745,-0.071338,3.8997e-06,-3.8513e-06,8.1643e-07,1,-0.071338,-0.99745,5.3961e-07,0.0001945,-0.00015991,-0.00026735,4.9889e-09,-6.9519e-08,-5.0958e-05,-0.0030609,0.0021336,0.00092726,-4.454e-09,4.179e-08,0.00074684,1,1,43.56,1733.6,0,3000
2.2607e-14,2.2607e-14,0.55046,-41.655,-54.448,-3.0342,0.00029705,-0.0041393,0.17163,50.125,0,0,0,-95.552,2205.9,1749.7,-54.448,-41.872,0.76747,7.4962e-05,-5.4402e-06,1,-0.071341,-0.99745,-7.8482e-08,0.99745,-0.071341,-7.5159e-05,-0.0028664,0.0019737,0.00065991,0.00069588,5.3484e-10,-2.773e-08,0.0029179,-0.00023276,-6.3675e-06,-3.8132e-09,-0.0028912,0.00065991,0.0019986,0.99745,-0.071338,3.8997e-06,-3.8513e-06,8.1643e-07,1,-0.071338,-0.99745,5.3961e-07,0.0001945,-0.00015991,-0.00026735,4.9889e-09,-6.9519e-08,-5.0958e-05,-0.0030609,0.0021336,0.00092726,-4.454e-09,4.179e-08,0.00074684,1,1,43.62,1733.6,0,3000
1.9613e-14,1.9613e-14,0.55046,-41.655,-54.448,-3.0342,0.00029705,-0.0041393,0.17163,50.125,0,0,0,-95.552,2205.9,1749.7,-54.448,-41.872,0.76747,7.4962e-05,-5.4402e-06,1,-0.071341,-0.99745,-7.8482e-08,0.99745,-0.071341,-7.5159e-05,-0.0028664,0.0019737,0.00065991,0.00069588,5.3484e-10,-2.773e-08,0.0029179,-0.00023276,-6.3675e-06,-3.8132e-09,-0.0028912,0.00065991,0.0019986,0.99745,-0.071338,3.8997e-06,-3.8513e-06,8.1643e-07,1,-0.071338,-0.99745,5.3961e-07,0.0001945,-0.00015991,-0.00026735,4.9889e-09,-6.9519e-08,-5.0958e-05,-0.0030609,0.0021336,0.00092726,-4.454e-09,4.179e-08,0.00074684,1,1,43.68,1733.7,0,3000
1.6625e-14,1.6625e-14,0.55046,-41.655,-54.448,-3.0342,0.00029705,-0.0041393,0.17163,50.125,0,0,0,-95.552,2205.9,1749.7,-54.448,-41.872,0.76747,7.4962e-05,-5.4402e-06,1,-0.071341,-0.99745,-7.8482e-08,0.99745,-0.071341,-7.5159e-05,-0.0028664,0.0019737,0.00065991,0.00069588,5.3484e-10,-2.773e-08,0.0029179,-0.00023276,-6.3675e-06,-3.8132e-09,-0.0028912,0.00065991,0.0019986,0.99745,-0.071338,3.8997e-06,-3.8513e-06,8.1643e-07,1,-0.071338,-0.99745,5.3961e-07,0.0001945,-0.00015991,-0.00026735,4.9889e-09,-6.9519e-08,-5.0958e-05,-0.0030609,0.0021336,0.00092726,-4.454e-09,4.179e-08,0.00074684,1,1,43.74,1733.7,0,3000
1.3631e-14,1.3631e-14,0.55046,-41.655,-54.448,-3.0342,0.00029705,-0.0041393,0.17163,50.125,0,0,0,-95.552,2205.9,1749.7,-54.448,-41.872,0.76747,7.4962e-05,-5.4402e-06,1,-0.071341,-0.99745,-7.8482e-08,0.99745,-0.071341,-7.5159e-05,-0.0028664,0.0019737,0.00065991,0.00069588,5.3484e-10,-2.773e-08,0.0029179,-0.00023276,-6.3675e-06,-3.8132e-09,-0.0028912,0.00065991,0.0019986,0.99745,-0.071338,3.8997e-06,-3.8513e-06,8.1643e-07,1,-0.071338,-0.99745,5.3961e-07,0.0001945,-0.00015991,-0.00026735,4.9889e-09,-6.9519e-08,-5.0958e-05,-0.0030609,0.0021336,0.00092726,-4.454e-09,4.179e-08,0.00074684,1,1,43.8,1733.8,0,3000
1.0643e-14,1.0643e-14,0.55046,-41.655,-54.448,-3.0342,0.00029705,-0.0041393,0.17163,50.125,0,0,0,-95.552,2205.9,1749.7,-54.448,-41.872,0.76747,7.4962e-05,-5.4402e-06,1,-0.071341,-0.99745,-7.8482e-08,0.99745,-0.071341,-7.5159e-05,-0.0028664,0.0019737,0.00065991,0.00069588,5.3484e-10,-2.773e-08,0.0029179,-0.00023276,-6.3675e-06,-3.8132e-09,-0.0028912,0.00065991,0.0019986,0.99745,-0.071338,3.8997e-06,-3.8513e-06,8.1643e-07,1,-0.071338,-0.99745,5.3961e-07,0.0001945,-0.00015991,-0.00026735,4.9889e-09,-6.9519e-08,-5.0958e-05,-0.0030609,0.0021336,0.00092726,-4.454e-09,4.179e-08,0.00074684,1,1,43.86,1733.9,0,3000
7.6495e-15,7.6495e-15,0.55046,-41.655,-54.448,-3.0342,0.00029705,-0.0041393,0.17163,50.125,0,0,0,-95.552,2205.9,1749.7,-54.448,-41.872,0.76747,7.4962e-05,-5.4402e-06,1,-0.071341,-0.99745,-7.8482e-08,0.99745,-0.071341,-7.5159e-05,-0.0028664,0.0019737,0.00065991,0.00069588,5.3484e-10,-2.773e-08,0.0029179,-0.00023276,-6.3675e-06,-3.8132e-09,-0.0028912,0.00065991,0.0019986,0.99745,-0.071338,3.8997e-06,-3.8513e-06,8.1643e-07,1,-0.071338,-0.99745,5.3961e-07,0.0001945,-0.00015991,-0.00026735,4.9889e-09,-6.9519e-08,-5.0958e-05,-0.0030609,0.0021336,0.00092726,-4.454e-09,4.179e-08,0.00074684,1,1,43.92,1733.9,0,3000
4.6617e-15,4.6617e-15,0.55046,-41.655,-54.448,-3.0342,0.00029705,-0.0041393,0.17163,50.125,0,0,0,-95.552,2205.9,1749.7,-54.448,-41.872,0.76747,7.4962e-05,-5.4402e-06,1,-0.071341,-0.99745,-7.8482e-08,0.99745,-0.071341,-7.5159e-05,-0.0028664,0.0019737,0.00065991,0.00069588,5.3484e-10,-2.773e-08,0.0029179,-0.00023276,-6.3675e-06,-3.8132e-09,-0.0028912,0.00065991,0.0019986,0.99745,-0.071338,3.8997e-06,-3.8513e-06,8.1643e-07,1,-0.071338,-0.99745,5.3961e-07,0.0001945,-0.00015991,-0.00026735,4.9889e-09,-6.9519e-08,-5.0958e-05,-0.0030609,0.0021336,0.00092726,-4.454e-09,4.179e-08,0.00074684,1,1,43.98,1734,0,3000
2.0368e-15,2.0368e-15,0.48444,-48.304,-61.161,-3.5075,0.00029037,-0.0040524,0.18063,56.655,0,0,0,-108.98,2889,2183.6,-61.161,-48.555,0.7353,6.5469e-05,-4.7247e-06,1,-0.071341,-0.99745,-4.2068e-08,0.99745,-0.071341,-6.5639e-05,-0.002896,0.0019707,0.00065983,0.00069972,5.8296e-10,-3.1782e-08,0.0029357,-0.00026547,-6.4401e-06,-3.8466e-09,-0.002921,0.00065983,0.0019957,0.99745,-0.071338,4.4323e-06,-4.376e-06,9.4555e-07,1,-0.071338,-0.99745,6.3096e-07,0.00022063,-0.00018907,-0.00029703,4.8768e-09,-6.806e-08,-5.8907e-05,-0.0031166,0.0021598,0.00095686,-4.2938e-09,3.6277e-08,0.00075862,1,1,44.04,1734,0,3000
-3.9869e-16,-3.9869e-16,0.48444,-48.304,-61.161,-3.5075,0.00029037,-0.0040524,0.18063,56.655,0,0,0,-108.98,2889,2183.6,-61.161,-48.555,0.7353,6.5469e-05,-4.7247e-06,1,-0.071341,-0.99745,-4.2068e-08,0.99745,-0.071341,-6.5639e-05,-0.002896,0.0019707,0.00065983,0.00069972,5.8296e-10,-3.1782e-08,0.0029357,-0.00026547,-6.4401e-06,-3.8466e-09,-0.002921,0.00065983,0.0019957,0.99745,-0.071338,4.4323e-06,-4.376e-06,9.4555e-07,1,-0.071338,-0.99745,6.3096e-07,0.00022063,-0.00018907,-0.00029703,4.8768e-09,-6.806e-08,-5.8907e-05,-0.0031166,0.0021598,0.00095686,-4.2938e-09,3.6277e-08,0.00075862,1,1,44.1,1734.1,0,3000
-2.8391e-15,-2.8391e-15,0.48444,-48.304,-61.161,-3.5075,0.00029037,-0.0040524,0.18063,56.655,0,0,0,-108.98,2889,2183.6,-61.161,-48.555,0.7353,6.5469e-05,-4.7247e-06,1,-0.071341,-0.99745,-4.2068e-08,0.99745,-0.071341,-6.5639e-05,-0.002896,0.0019707,0.00065983,0.00069972,5.8296e-10,-3.1782e-08,0.0029357,-0.00026547,-6.4401e-06,-3.8466e-09,-0.002921,0.00065983,0.0019957,0.99745,-0.071338,4.4323e-06,-4.376e-06,9.4555e-07,1,-0.071338,-0.99745,6.3096e-07,0.00022063,-0.00018907,-0.00029703,4.8768e-09,-6.806e-08,-5.8907e-05,-0.0031166,0.0021598,0.00095686,-4.2938e-09,3.6277e-08,0.00075862,1,1,44.16,1734.2,0,3000
-5.2746e-15,-5.2746e-15,0.48444,-48.304,-61.161,-3.5075,0.00029037,-0.0040524,0.18063,56.655,0,0,0,-108.98,2889,2183.6,-61.161,-48.555,0.7353,6.5469e-05,-4.7247e-06,1,-0.071341,-0.99745,-4.2068e-08,0.99745,-0.071341,-6.5639e-05,-0.002896,0.0019707,0.00065983,0.00069972,5.8296e-10,-3.1782e-08,0.0029357,-0.00026547,-6.4401e-06,-3.8466e-09,-0.002921,0.00065983,0.0019957,0.99745,-0.071338,4.4323e-06,-4.376e-06,9.4555e-07,1,-0.071338,-0.99745,6.3096e-07,0.00022063,-0.00018907,-0.00029703,4.8768e-09,-6.806e-08,-5.8907e-05,-0.0031166,0.0021598,0.00095686,-4.2938e-09,3.6277e-08,0.00075862,1,1,44.22,1734.2,0,3000
-7.715e-15,-7.715e-15,0.48444,-48.304,-61.161,-3.5075,0.00029037,-0.0040524,0.18063,56.655,0,0,0,-108.98,2889,2183.6,-61.161,-48.555,0.7353,6.5469e-05,-4.7247e-06,1,-0.071341,-0.99745,-4.2068e-08,0.99745,-0.071341,-6.5639e-05,-0.002896,0.0019707,0.00065983,0.00069972,5.8296e-10,-3.1782e-08,0.0029357,-0.00026547,-6.4401e-06,-3.8466e-09,-0.002921,0.00065983,0.0019957,0.99745,-0.071338,4.4323e-06,-4.376e-06,9.4555e-07,1,-0.071338,-0.99745,6.3096e-07,0.00022063,-0.00018907,-0.00029703,4.8768e-09,-6.806e-08,-5.8907e-05,-0.0031166,0.0021598,0.00095686,-4.2938e-09,3.6277e-08,0.00075862,1,1,44.28,1734.3,0,3000
-1.015e-14,-1.015e-14,0.48444,-48.304,-61.161,-3.5075,0.00029037,-0.0040524,0.18063,56.655,0,0,0,-108.98,2889,2183.6,-61.161,-48.555,0.7353,6.5469e-05,-4.7247e-06,1,-0.071341,-0.99745,-4.2068e-08,0.99745,-0.071341,-6.5639e-05,-0.002896,0.0019707,0.00065983,0.00069972,5.8296e-10,-3.1782e-08,0.0029357,-0.00026547,-6.4401e-06,-3.8466e-09,-0.002921,0.00065983,0.0019957,0.99745,-0.071338,4.4323e-06,-4.376e-06,9.4555e-07,1,-0.071338,-0.99745,6.3096e-07,0.00022063,-0.00018907,-0.00029703,4.8768e-09,-6.806e-08,-5.8907e-05,-0.0031166,0.0021598,0.00095686,-4.2938e-09,3.6277e-08,0.00075862,1,1,44.34,1734.3,0,3000
-1.2591e-14,-1.2591e-14,0.48444,-48.304,-61.161,-3.5075,0.00029037,-0.0040524,0.18063,56.655,0,0,0,-108.98,2889,2183.6,-61.161,-48.555,0.7353,6.5469e-05,-4.7247e-06,1,-0.071341,-0.99745,-4.2068e-08,0.99745,-0.071341,-6.5639e-05,-0.002896,0.0019707,0.00065983,0.00069972,5.8296e-10,-3.1782e-08,0.0029357,-0.00026547,-6.4401e-06,-3.8466e-09,-0.002921,0.00065983,0.0019957,0.99745,-0.071338,4.4323e-06,-4.376e-06,9.4555e-07,1,-0.071338,-0.99745,6.3096e-07,0.00022063,-0.00018907,-0.00029703,4.8768e-09,-6.806e-08,-5.8907e-05,-0.0031166,0.0021598,0.00095686,-4.2938e-09,3.6277e-08,0.00075862,1,1,44.4,1734.4,0,3000
-1.5026e-14,-1.5026e-14,0.48444,-48.304,-61.161,-3.5075,0.00029037,-0.0040524,0.18063,56.655,0,0,0,-108.98,2889,2183.6,-61.161,-48.555,0.7353,6.5469e-05,-4.7247e-06,1,-0.071341,-0.99745,-4.2068e-08,0.99745,-0.071341,-6.5639e-05,-0.002896,0.0019707,0.00065983,0.00069972,5.8296e-10,-3.1782e-08,0.0029357,-0.00026547,-6.4401e-06,-3.8466e-09,-0.002921,0.00065983,0.0019957,0.99745,-0.071338,4.4323e-06,-4.376e-06,9.4555e-07,1,-0.071338,-0.99745,6.3096e-07,0.00022063,-0.00018907,-0.00029703,4.8768e-09,-6.806e-08,-5.8907e-05,-0.0031166,0.0021598,0.00095686,-4.2938e-09,3.6277e-08,0.00075862,1,1,44.46,1734.5,0,3000
-1.7467e-14,-1.7467e-14,0.48444,-48.304,-61.161,-3.5075,0.00029037,-0.0040524,0.18063,56.655,0,0,0,-108.98,2889,2183.6,-61.161,-48.555,0.7353,6.5469e-05,-4.7247e-06,1,-0.071341,-0.99745,-4.2068e-08,0.99745,-0.071341,-6.5639e-05,-0.002896,0.0019707,0.00065983,0.00069972,5.8296e-10,-3.1782e-08,0.0029357,-0.00026547,-6.4401e-06,-3.8466e-09,-0.002921,0.00065983,0.0019957,0.99745,-0.071338,4.4323e-06,-4.376e-06,9.4555e-07,1,-0.071338,-0.99745,6.3096e-07,0.00022063,-0.00018907,-0.00029703,4.8768e-09,-6.806e-08,-5.8907e-05,-0.0031166,0.0021598,0.00095686,-4.2938e-09,3.6277e-08,0.00075862,1,1,44.52,1734.5,0,3000
-1.9902e-14,-1.9902e-14,0.48444,-48.304,-61.161,-3.5075,0.00029037,-0.0040524,0.18063,56.655,0,0,0,-108.98,2889,2183.6,-61.161,-48.555,0.7353,6.5469e-05,-4.7247e-06,1,-0.071341,-0.99745,-4.2068e-08,0.99745,-0.071341,-6.5639e-05,-0.002896,0.0019707,0.00065983,0.00069972,5.8296e-10,-3.1782e-08,0.0029357,-0.00026547,-6.4401e-06,-3.8466e-09,-0.002921,0.00065983,0.0019957,0.99745,-0.071338,4.4323e-06,-4.376e-06,9.4555e-07,1,-0.071338,-0.99745,6.3096e-07,0.00022063,-0.00018907,-0.00029703,4.8768e-09,-6.806e-08,-5.8907e-05,-0.0031166,0.0021598,0.00095686,-4.2938e-09,3.6277e-08,0.00075862,1,1,44.58,1734.6,0,3000
-2.2343e-14,-2.2343e-14,0.48444,-48.304,-61.161,-3.5075,0.00029037,-0.0040524,0.18063,56.655,0,0,0,-108.98,2889,2183.6,-61.161,-48.555,0.7353,6.5469e-05,-4.7247e-06,1,-0.071341,-0.99745,-4.2068e-08,0.99745,-0.071341,-6.5639e-05,-0.002896,0.0019707,0.00065983,0.00069972,5.8296e-10,-3.1782e-08,0.0029357,-0.00026547,-6.4401e-06,-3.8466e-09,-0.002921,0.00065983,0.0019957,0.99745,-0.071338,4.4323e-06,-4.376e-06,9.4555e-07,1,-0.071338,-0.99745,6.3096e-07,0.00022063,-0.00018907,-0.00029703,4.8768e-09,-6.806e-08,-5.8907e-05,-0.0031166,0.0021598,0.00095686,-4.2938e-09,3.6277e-08,0.00075862,1,1,44.64,1734.6,0,3000
-2.4778e-14,-2.4778e-14,0.48444,-48.304,-61.161,-3.5075,0.00029037,-0.0040524,0.18063,56.655,0,0,0,-108.98,2889,2183.6,-61.161,-48.555,0.7353,6.5469e-05,-4.7247e-06,1,-0.071341,-0.99745,-4.2068e-08,0.99745,-0.071341,-6.5639e-05,-0.002896,0.0019707,0.00065983,0.00069972,5.8296e-10,-3.1782e-08,0.0029357,-0.00026547,-6.4401e-06,-3.8466e-09,-0.002921,0.00065983,0.0019957,0.99745,-0.071338,4.4323e-06,-4.376e-06,9.4555e-07,1,-0.071338,-0.99745,6.3096e-07,0.00022063,-0.00018907,-0.00029703,4.8768e-09,-6.806e-08,-5.8907e-05,-0.0031166,0.0021598,0.00095686,-4.2938e-09,3.6277e-08,0.00075862,1,1,44.7,1734.7,0,3000
-2.7219e-14,-2.7219e-14,0.48444,-48.304,-61.161,-3.5075,0.00029037,-0.0040524,0.18063,56.655,0,0,0,-108.98,2889,2183.6,-61.161,-48.555,0.7353,6.5469e-05,-4.7247e-06,1,-0.071341,-0.99745,-4.2068e-08,0.99745,-0.071341,-6.5639e-05,-0.002896,0.0019707,0.00065983,0.00069972,5.8296e-10,-3.1782e-08,0.0029357,-0.00026547,-6.4401e-06,-3.8466e-09,-0.002921,0.00065983,0.0019957,0.99745,-0.071338,4.4323e-06,-4.376e-06,9.4555e-07,1,-0.071338,-0.99745,6.3096e-07,0.00022063,-0.00018907,-0.00029703,4.8768e-09,-6.806e-08,-5.8907e-05,-0.0031166,0.0021598,0.00095686,-4.2938e-09,3.6277e-08,0.00075862,1,1,44.76,1734.8,0,3000
-2.9654e-14,-2.9654e-14,0.48444,-48.304,-61.161,-3.5075,0.00029037,-0.0040524,0.18063,56.655,0,0,0,-108.98,2889,2183.6,-61.161,-48.555,0.7353,6.5469e-05,-4.7247e-06,1,-0.071341,-0.99745,-4.2068e-08,0.99745,-0.071341,-6.5639e-05,-0.002896,0.0019707,0.00065983,0.00069972,5.8296e-10,-3.1782e-08,0.0029357,-0.00026547,-6.4401e-06,-3.8466e-09,-0.002921,0.00065983,0.0019957,0.99745,-0.071338,4.4323e-06,-4.376e-06,9.4555e-07,1,-0.071338,-0.99745,6.3096e-07,0.00022063,-0.00018907,-0.00029703,4.8768e-09,-6.806e-08,-5.8907e-05,-0.0031166,0.0021598,0.00095686,-4.2938e-09,3.6277e-08,0.00075862,1,1,44.82,1734.8,0,3000
-3.2095e-14,-3.2095e-14,0.48444,-48.304,-61.161,-3.5075,0.00029037,-0.0040524,0.18063,56.655,0,0,0,-108.98,2889,2183.6,-61.161,-48.555,0.7353,6.5469e-05,-4.7247e-06,1,-0.071341,-0.99745,-4.2068e-08,0.99745,-0.071341,-6.5639e-05,-0.002896,0.0019707,0.00065983,0.00069972,5.8296e-10,-3.1782e-08,0.0029357,-0.00026547,-6.4401e-06,-3.8466e-09,-0.002921,0.00065983,0.0019957,0.99745,-0.071338,4.4323e-06,-4.376e-06,9.4555e-07,1,-0.071338,-0.99745,6.3096e-07,0.00022063,-0.00018907,-0.00029703,4.8768e-09,-6.806e-08,-5.8907e-05,-0.0031166,0.0021598,0.00095686,-4.2938e-09,3.6277e-08,0.00075862,1,1,44.88,1734.9,0,3000
-3.453e-14,-3.453e-14,0.48444,-48.304,-61.161,-3.5075,0.00029037,-0.0040524,0.18063,56.655,0,0,0,-108.98,2889,2183.6,-61.161,-48.555,0.7353,6.5469e-05,-4.7247e-06,1,-0.071341,-0.99745,-4.2068e-08,0.99745,-0.071341,-6.5639e-05,-0.002896,0.0019707,0.00065983,0.00069972,5.8296e-10,-3.1782e-08,0.0029357,-0.00026547,-6.4401e-06,-3.8466e-09,-0.002921,0.00065983,0.0019957,0.99745,-0.071338,4.4323e-06,-4.376e-06,9.4555e-07,1,-0.071338,-0.99745,6.3096e-07,0.00022063,-0.00018907,-0.00029703,4.8768e-09,-6.806e-08,-5.8907e-05,-0.0031166,0.0021598,0.00095686,-4.2938e-09,3.6277e-08,0.00075862,1,1,44.94,1734.9,0,3000
-3.697e-14,-3.697e-14,0.48444,-48.304,-61.161,-3.5075,0.00029037,-0.0040524,0.18063,56.655,0,0,0,-108.98,2889,2183.6,-61.161,-48.555,0.7353,6.5469e-05,-4.7247e-06,1,-0.071341,-0.99745,-4.2068e-08,0.99745,-0.071341,-6.5639e-05,-0.002896,0.0019707,0.00065983,0.00069972,5.8296e-10,-3.1782e-08,0.0029357,-0.00026547,-6.4401e-06,-3.8466e-09,-0.002921,0.00065983,0.0019957,0.99745,-0.071338,4.4323e-06,-4.376e-06,9.4555e-07,1,-0.071338,-0.99745,6.3096e-07,0.00022063,-0.00018907,-0.00029703,4.8768e-09,-6.806e-08,-5.8907e-05,-0.0031166,0.0021598,0.00095686,-4.2938e-09,3.6277e-08,0.00075862,1,1,45,1735,0,3000
-3.4063e-14,-3.4063e-14,0.41466,-54.948,-67.863,-3.9801,0.00028413,-0.0039712,0.19012,63.201,0,0,0,-122.4,3662.2,2621.2,-67.863,-55.233,0.69933,5.7921e-05,-4.1506e-06,1,-0.071341,-0.99745,-7.903e-09,0.99745,-0.071341,-5.807e-05,-0.0029256,0.0019677,0.00065975,0.00070354,7.4309e-10,-3.7265e-08,0.0029534,-0.00029814,-6.5125e-06,-3.8797e-09,-0.0029508,0.00065975,0.0019929,0.99745,-0.071338,5.1548e-06,-5.0904e-06,1.085e-06,1,-0.071338,-0.99745,7.1907e-07,0.0002467,-0.0002182,-0.00032665,4.772e-09,-6.6696e-08,-6.6845e-05,-0.0031723,0.0021859,0.0009864,-4.0289e-09,2.9431e-08,0.00077039,1,1,45.06,1735.1,0,3000
-3.1162e-14,-3.1162e-14,0.41466,-54.948,-67.863,-3.9801,0.00028413,-0.0039712,0.19012,63.201,0,0,0,-122.4,3662.2,2621.2,-67.863,-55.233,0.69933,5.7921e-05,-4.1506e-06,1,-0.071341,-0.99745,-7.903e-09,0.99745,-0.071341,-5.807e-05,-0.0029256,0.0019677,0.00065975,0.00070354,7.4309e-10,-3.7265e-08,0.0029534,-0.00029814,-6.5125e-06,-3.8797e-09,-0.0029508,0.00065975,0.0019929,0.99745,-0.071338,5.1548e-06,-5.0904e-06,1.085e-06,1,-0.071338,-0.99745,7.1907e-07,0.0002467,-0.0002182,-0.00032665,4.772e-09,-6.6696e-08,-6.6845e-05,-0.0031723,0.0021859,0.0009864,-4.0289e-09,2.9431e-08,0.00077039,1,1,45.12,1735.1,0,3000
-2.8255e-14,-2.8255e-14,0.41466,-54.948,-67.863,-3.9801,0.00028413,-0.0039712,0.19012,63.201,0,0,0,-122.4,3662.2,2621.2,-67.863,-55.233,0.69933,5.7921e-05,-4.1506e-06,1,-0.071341,-0.99745,-7.903e-09,0.99745,-0.071341,-5.807e-05,-0.0029256,0.0019677,0.00065975,0.00070354,7.4309e-10,-3.7265e-08,0.0029534,-0.00029814,-6.5125e-06,-3.8797e-09,-0.0029508,0.00065975,0.0019929,0.99745,-0.071338,5.1548e-06,-5.0904e-06,1.085e-06,1,-0.071338,-0.99745,7.1907e-07,0.0002467,-0.0002182,-0.00032665,4.772e-09,-6.6696e-08,-6.6845e-05,-0.0031723,0.0021859,0.0009864,-4.0289e-09,2.9431e-08,0.00077039,1,1,45.18,1735.2,0,3000
-2.5354e-14,-2.5354e-14,0.41466,-54.948,-67.863,-3.9801,0.00028413,-0.0039712,0.19012,63.201,0,0,0,-122.4,3662.2,2621.2,-67.863,-55.233,0.69933,5.7921e-05,-4.1506e-06,1,-0.071341,-0.99745,-7.903e-09,0.99745,-0.071341,-5.807e-05,-0.0029256,0.0019677,0.00065975,0.00070354,7.4309e-10,-3.7265e-08,0.0029534,-0.00029814,-6.5125e-06,-3.8797e-09,-0.0029508,0.00065975,0.0019929,0.99745,-0.071338,5.1548e-06,-5.0904e-06,1.085e-06,1,-0.071338,-0.99745,7.1907e-07,0.0002467,-0.0002182,-0.00032665,4.772e-09,-6.6696e-08,-6.6845e-05,-0.0031723,0.0021859,0.0009864,-4.0289e-09,2.9431e-08,0.00077039,1,1,45.24,1735.2,0,3000
-2.2446e-14,-2.2446e-14,0.41466,-54.948,-67.863,-3.9801,0.00028413,-0.0039712,0.19012,63.201,0,0,0,-122.4,3662.2,2621.2,-67.863,-55.233,0.69933,5.7921e-05,-4.1506e-06,1,-0.071341,-0.99745,-7.903e-09,0.99745,-0.071341,-5.807e-05,-0.0029256,0.0019677,0.00065975,0.00070354,7.4309e-10,-3.7265e-08,0.0029534,-0.00029814,-6.5125e-06,-3.8797e-09,-0.0029508,0.00065975,0.0019929,0.99745,-0.071338,5.1548e-06,-5.0904e-06,1.085e-06,1,-0.071338,-0.99745,7.1907e-07,0.0002467,-0.0002182,-0.00032665,4.772e-09,-6.6696e-08,-6.6845e-05,-0.0031723,0.0021859,0.0009864,-4.0289e-09,2.9431e-08,0.00077039,1,1,45.3,1735.3,0,3000
-1.9545e-14,-1.9545e-14,0.41466,-54.948,-67.863,-3.9801,0.00028413,-0.0039712,0.19012,63.201,0,0,0,-122.4,3662.2,2621.2,-67.863,-55.233,0.69933,5.7921e-05,-4.1506e-06,1,-0.071341,-0.99745,-7.903e-09,0.99745,-0.071341,-5.807e-05,-0.0029256,0.0019677,0.00065975,0.00070354,7.4309e-10,-3.7265e-08,0.0029534,-0.00029814,-6.5125e-06,-3.8797e-09,-0.0029508,0.00065975,0.0019929,0.99745,-0.071338,5.1548e-06,-5.0904e-06,1.085e-06,1,-0.071338,-0.99745,7.1907e-07,0.0002467,-0.0002182,-0.00032665,4.772e-09,-6.6696e-08,-6.6845e-05,-0.0031723,0.0021859,0.0009864,-4.0289e-09,2.9431e-08,0.00077039,1,1,45.36,1735.4,0,3000
-1.6638e-14,-1.6638e-14,0.41466,-54.948,-67.863,-3.9801,0.00028413,-0.0039712,0.19012,63.201,0,0,0,-122.4,3662.2,2621.2,-67.863,-55.233,0.69933,5.7921e-05,-4.1506e-06,1,-0.071341,-0.99745,-7.903e-09,0.99745,-0.071341,-5.807e-05,-0.0029256,0.0019677,0.00065975,0.00070354,7.4309e-10,-3.7265e-08,0.0029534,-0.00029814,-6.5125e-06,-3.8797e-09,-0.0029508,0.00065975,0.0019929,0.99745,-0.071338,5.1548e-06,-5.0904e-06,1.085e-06,1,-0.071338,-0.99745,7.1907e-07,0.0002467,-0.0002182,-0.00032665,4.772e-09,-6.6696e-08,-6.6845e-05,-0.0031723,0.0021859,0.0009864,-4.0289e-09,2.9431e-08,0.00077039,1,1,45.42,1735.4,0,3000
-1.3737e-14,-1.3737e-14,0.41466,-54.948,-67.863,-3.9801,0.00028413,-0.0039712,0.19012,63.201,0,0,0,-122.4,3662.2,2621.2,-67.863,-55.233,0.69933,5.7921e-05,-4.1506e-06,1,-0.071341,-0.99745,-7.903e-09,0.99745,-0.071341,-5.807e-05,-0.0029256,0.0019677,0.00065975,0.00070354,7.4309e-10,-3.7265e-08,0.0029534,-0.00029814,-6.5125e-06,-3.8797e-09,-0.0029508,0.00065975,0.0019929,0.99745,-0.071338,5.1548e-06,-5.0904e-06,1.085e-06,1,-0.071338,-0.99745,7.1907e-07,0.0002467,-0.0002182,-0.00032665,4.772e-09,-6.6696e-08,-6.6845e-05,-0.0031723,0.0021859,0.0009864,-4.0289e-09,2.9431e-08,0.00077039,1,1,45.48,1735.5,0,3000
-1.0829e-14,-1.0829e-14,0.41466,-54.948,-67.863,-3.9801,0.00028413,-0.0039712,0.19012,63.201,0,0,0,-122.4,3662.2,2621.2,-67.863,-55.233,0.69933,5.7921e-05,-4.1506e-06,1,-0.071341,-0.99745,-7.903e-09,0.99745,-0.071341,-5.807e-05,-0.0029256,0.0019677,0.00065975,0.00070354,7.4309e-10,-3.7265e-08,0.0029534,-0.00029814,-6.5125e-06,-3.8797e-09,-0.0029508,0.00065975,0.0019929,0.99745,-0.071338,5.1548e-06,-5.0904e-06,1.085e-06,1,-0.071338,-0.99745,7.1907e-07,0.0002467,-0.0002182,-0.00032665,4.772e-09,-6.6696e-08,-6.6845e-05,-0.0031723,0.0021859,0.0009864,-4.0289e-09,2.9431e-08,0.00077039,1,1,45.54,1735.5,0,3000
-7.9282e-15,-7.9282e-15,0.41466,-54.948,-67.863,-3.9801,0.00028413,-0.0039712,0.19012,63.201,0,0,0,-122.4,3662.2,2621.2,-67.863,-55.233,0.69933,5.7921e-05,-4.1506e-06,1,-0.071341,-0.99745,-7.903e-09,0.99745,-0.071341,-5.807e-05,-0.0029256,0.0019677,0.00065975,0.00070354,7.4309e-10,-3.7265e-08,0.0029534,-0.00029814,-6.5125e-06,-3.8797e-09,-0.0029508,0.00065975,0.0019929,0.99745,-0.071338,5.1548e-06,-5.0904e-06,1.085e-06,1,-0.071338,-0.99745,7.1907e-07,0.0002467,-0.0002182,-0.00032665,4.772e-09,-6.6696e-08,-6.6845e-05,-0.0031723,0.0021859,0.0009864,-4.0289e-09,2.9431e-08,0.00077039,1,1,45.6,1735.6,0,3000
-5.021e-15,-5.021e-15,0.41466,-54.948,-67.863,-3.9801,0.00028413,-0.0039712,0.19012,63.201,0,0,0,-122.4,3662.2,2621.2,-67.863,-55.233,0.69933,5.7921e-05,-4.1506e-06,1,-0.071341,-0.99745,-7.903e-09,0.99745,-0.071341,-5.807e-05,-0.0029256,0.0019677,0.00065975,0.00070354,7.4309e-10,-3.7265e-08,0.0029534,-0.00029814,-6.5125e-06,-3.8797e-09,-0.0029508,0.00065975,0.0019929,0.99745,-0.071338,5.1548e-06,-5.0904e-06,1.085e-06,1,-0.071338,-0.99745,7.1907e-07,0.0002467,-0.0002182,-0.00032665,4.772e-09,-6.6696e-08,-6.6845e-05,-0.0031723,0.0021859,0.0009864,-4.0289e-09,2.9431e-08,0.00077039,1,1,45.66,1735.7,0,3000
-2.1197e-15,-2.1197e-15,0.41466,-54.948,-67.863,-3.9801,0.00028413,-0.0039712,0.19012,63.201,0,0,0,-122.4,3662.2,2621.2,-67.863,-55.233,0.69933,5.7921e-05,-4.1506e-06,1,-0.071341,-0.99745,-7.903e-09,0.99745,-0.071341,-5.807e-05,-0.0029256,0.0019677,0.00065975,0.00070354,7.4309e-10,-3.7265e-08,0.0029534,-0.00029814,-6.5125e-06,-3.8797e-09,-0.0029508,0.00065975,0.0019929,0.99745,-0.071338,5.1548e-06,-5.0904e-06,1.085e-06,1,-0.071338,-0.99745,7.1907e-07,0.0002467,-0.0002182,-0.00032665,4.772e-09,-6.6696e-08,-6.6845e-05,-0.0031723,0.0021859,0.0009864,-4.0289e-09,2.9431e-08,0.00077039,1,1,45.72,1735.7,0,3000
7.8746e-16,7.8746e-16,0.41466,-54.948,-67.863,-3.9801,0.00028413,-0.0039712,0.19012,63.201,0,0,0,-122.4,3662.2,2621.2,-67.863,-55.233,0.69933,5.7921e-05,-4.1506e-06,1,-0.071341,-0.99745,-7.903e-09,0.99745,-0.071341,-5.807e-05,-0.0029256,0.0019677,0.00065975,0.00070354,7.4309e-10,-3.7265e-08,0.0029534,-0.00029814,-6.5125e-06,-3.8797e-09,-0.0029508,0.00065975,0.0019929,0.99745,-0.071338,5.1548e-06,-5.0904e-06,1.085e-06,1,-0.071338,-0.99745,7.1907e-07,0.0002467,-0.0002182,-0.00032665,4.772e-09,-6.6696e-08,-6.6845e-05,-0.0031723,0.0021859,0.0009864,-4.0289e-09,2.9431e-08,0.00077039,1,1,45.78,1735.8,0,3000
3.6887e-15,3.6887e-15,0.41466,-54.948,-67.863,-3.9801,0.00028413,-0.0039712,0.19012,63.201,0,0,0,-122.4,3662.2,2621.2,-67.863,-55.233,0.69933,5.7921e-05,-4.1506e-06,1,-0.071341,-0.99745,-7.903e-09,0.99745,-0.071341,-5.807e-05,-0.0029256,0.0019677,0.00065975,0.00070354,7.4309e-10,-3.7265e-08,0.0029534,-0.00029814,-6.5125e-06,-3.8797e-09,-0.0029508,0.00065975,0.0019929,0.99745,-0.071338,5.1548e-06,-5.0904e-06,1.085e-06,1,-0.071338,-0.99745,7.1907e-07,0.0002467,-0.0002182,-0.00032665,4.772e-09,-6.6696e-08,-6.6845e-05,-0.0031723,0.0021859,0.0009864,-4.0289e-09,2.9431e-08,0.00077039,1,1,45.84,1735.8,0,3000
6.5959e-15,6.5959e-15,0.41466,-54.948,-67.863,-3.9801,0.00028413,-0.0039712,0.19012,63.201,0,0,0,-122.4,3662.2,2621.2,-67.863,-55.233,0.69933,5.7921e-05,-4.1506e-06,1,-0.071341,-0.99745,-7.903e-09,0.99745,-0.071341,-5.807e-05,-0.0029256,0.0019677,0.00065975,0.00070354,7.4309e-10,-3.7265e-08,0.0029534,-0.00029814,-6.5125e-06,-3.8797e-09,-0.0029508,0.00065975,0.0019929,0.99745,-0.071338,5.1548e-06,-5.0904e-06,1.085e-06,1,-0.071338,-0.99745,7.1907e-07,0.0002467,-0.0002182,-0.00032665,4.772e-09,-6.6696e-08,-6.6845e-05,-0.0031723,0.0021859,0.0009864,-4.0289e-09,2.9431e-08,0.00077039,1,1,45.9,1735.9,0,3000
9.4972e-15,9.4972e-15,0.41466,-54.948,-67.863,-3.9801,0.00028413,-0.0039712,0.19012,63.201,0,0,0,-122.4,3662.2,2621.2,-67.863,-55.233,0.69933,5.7921e-05,-4.1506e-06,1,-0.071341,-0.99745,-7.903e-09,0.99745,-0.071341,-5.807e-05,-0.0029256,0.0019677,0.00065975,0.00070354,7.4309e-10,-3.7265e-08,0.0029534,-0.00029814,-6.5125e-06,-3.8797e-09,-0.0029508,0.00065975,0.0019929,0.99745,-0.071338,5.1548e-06,-5.0904e-06,1.085e-06,1,-0.071338,-0.99745,7.1907e-07,0.0002467,-0.0002182,-0.00032665,4.772e-09,-6.6696e-08,-6.6845e-05,-0.0031723,0.0021859,0.0009864,-4.0289e-09,2.9431e-08,0.00077039,1,1,45.96,1736,0,3000
1.1484e-14,1.1484e-14,0.34114,-61.585,-74.548,-4.4519,0.00027831,-0.0038954,0.20019,69.751,0,0,0,-135.79,4524.8,3043.7,-74.548,-61.903,0.65955,5.1797e-05,-3.6806e-06,1,-0.07134,-0.99745,2.3999e-08,0.99745,-0.07134,-5.1928e-05,-0.0029551,0.0019647,0.00065967,0.00070736,1.0513e-09,-4.4686e-08,0.0029712,-0.00033077,-6.5845e-06,-3.9126e-09,-0.0029804,0.00065967,0.00199,0.99745,-0.071338,6.1327e-06,-6.0597e-06,1.2395e-06,1,-0.071338,-0.99745,8.0403e-07,0.00027271,-0.00024731,-0.00035617,4.6741e-09,-6.5423e-08,-7.4769e-05,-0.0032279,0.002212,0.0010158,-3.6229e-09,2.0737e-08,0.00078213,1,1,46.02,1736,0,3000
1.1631e-14,1.1631e-14,0.34114,-61.585,-74.548,-4.4519,0.00027831,-0.0038954,0.20019,69.751,0,0,0,-135.79,4524.8,3043.7,-74.548,-61.903,0.65955,5.1797e-05,-3.6806e-06,1,-0.07134,-0.99745,2.3999e-08,0.99745,-0.07134,-5.1928e-05,-0.0029551,0.0019647,0.00065967,0.00070736,1.0513e-09,-4.4686e-08,0.0029712,-0.00033077,-6.5845e-06,-3.9126e-09,-0.0029804,0.00065967,0.00199,0.99745,-0.071338,6.1327e-06,-6.0597e-06,1.2395e-06,1,-0.071338,-0.99745,8.0403e-07,0.00027271,-0.00024731,-0.00035617,4.6741e-09,-6.5423e-08,-7.4769e-05,-0.0032279,0.002212,0.0010158,-3.6229e-09,2.0737e-08,0.00078213,1,1,46.08,1736.1,0,3000
1.1777e-14,1.1777e-14,0.34114,-61.585,-74.548,-4.4519,0.00027831,-0.0038954,0.20019,69.751,0,0,0,-135.79,4524.8,3043.7,-74.548,-61.903,0.65955,5.1797e-05,-3.6806e-06,1,-0.07134,-0.99745,2.3999e-08,0.99745,-0.07134,-5.1928e-05,-0.0029551,0.0019647,0.00065967,0.00070736,1.0513e-09,-4.4686e-08,0.0029712,-0.00033077,-6.5845e-06,-3.9126e-09,-0.0029804,0.00065967,0.00199,0.99745,-0.071338,6.1327e-06,-6.0597e-06,1.2395e-06,1,-0.071338,-0.99745,8.0403e-07,0.00027271,-0.00024731,-0.00035617,4.6741e-09,-6.5423e-08,-7.4769e-05,-0.0032279,0.002212,0.0010158,-3.6229e-09,2.0737e-08,0.00078213,1,1,46.14,1736.1,0,3000
1.1924e-14,1.1924e-14,0.34114,-61.585,-74.548,-4.4519,0.00027831,-0.0038954,0.20019,69.751,0,0,0,-135.79,4524.8,3043.7,-74.548,-61.903,0.65955,5.1797e-05,-3.6806e-06,1,-0.07134,-0.99745,2.3999e-08,0.99745,-0.07134,-5.1928e-05,-0.0029551,0.0019647,0.00065967,0.00070736,1.0513e-09,-4.4686e-08,0.0029712,-0.00033077,-6.5845e-06,-3.9126e-09,-0.0029804,0.00065967,0.00199,0.99745,-0.071338,6.1327e-06,-6.0597e-06,1.2395e-06,1,-0.071338,-0.99745,8.0403e-07,0.00027271,-0.00024731,-0.00035617,4.6741e-09,-6.5423e-08,-7.4769e-05,-0.0032279,0.002212,0.0010158,-3.6229e-09,2.0737e-08,0.00078213,1,1,46.2,1736.2,0,3000
1.207e-14,1.207e-14,0.34114,-61.585,-74.548,-4.4519,0.00027831,-0.0038954,0.20019,69.751,0,0,0,-135.79,4524.8,3043.7,-74.548,-61.903,0.65955,5.1797e-05,-3.6806e-06,1,-0.07134,-0.99745,2.3999e-08,0.99745,-0.07134,-5.1928e-05,-0.0029551,0.0019647,0.00065967,0.00070736,1.0513e-09,-4.4686e-08,0.0029712,-0.00033077,-6.5845e-06,-3.9126e-09,-0.0029804,0.00065967,0.00199,0.99745,-0.071338,6.1327e-06,-6.0597e-06,1.2395e-06,1,-0.071338,-0.99745,8.0403e-07,0.00027271,-0.00024731,-0.00035617,4.6741e-09,-6.5423e-08,-7.4769e-05,-0.0032279,0.002212,0.0010158,-3.6229e-09,2.0737e-08,0.00078213,1,1,46.26,1736.3,0,3000
1.2217e-14,1.2217e-14,0.34114,-61.585,-74.548,-4.4519,0.00027831,-0.0038954,0.20019,69.751,0,0,0,-135.79,4524.8,3043.7,-74.548,-61.903,0.65955,5.1797e-05,-3.6806e-06,1,-0.07134,-0.99745,2.3999e-08,0.99745,-0.07134,-5.1928e-05,-0.0029551,0.0019647,0.00065967,0.00070736,1.0513e-09,-4.4686e-08,0.0029712,-0.00033077,-6.5845e-06,-3.9126e-09,-0.0029804,0.00065967,0.00199,0.99745,-0.071338,6.1327e-06,-6.0597e-06,1.2395e-06,1,-0.071338,-0.99745,8.0403e-07,0.00027271,-0.00024731,-0.00035617,4.6741e-09,-6.5423e-08,-7.4769e-05,-0.0032279,0.002212,0.0010158,-3.6229e-09,2.0737e-08,0.00078213,1,1,46.32,1736.3,0,3000
1.2363e-14,1.2363e-14,0.34114,-61.585,-74.548,-4.4519,0.00027831,-0.0038954,0.20019,69.751,0,0,0,-135.79,4524.8,3043.7,-74.548,-61.903,0.65955,5.1797e-05,-3.6806e-06,1,-0.07134,-0.99745,2.3999e-08,0.99745,-0.07134,-5.1928e-05,-0.0029551,0.0019647,0.00065967,0.00070736,1.0513e-09,-4.4686e-08,0.0029712,-0.00033077,-6.5845e-06,-3.9126e-09,-0.0029804,0.00065967,0.00199,0.99745,-0.071338,6.1327e-06,-6.0597e-06,1.2395e-06,1,-0.071338,-0.99745,8.0403e-07,0.00027271,-0.00024731,-0.00035617,4.6741e-09,-6.5423e-08,-7.4769e-05,-0.0032279,0.002212,0.0010158,-3.6229e-09,2.0737e-08,0.00078213,1,1,46.38,1736.4,0,3000
1.251e-14,1.251e-14,0.34114,-61.585,-74.548,-4.4519,0.00027831,-0.0038954,0.20019,69.751,0,0,0,-135.79,4524.8,3043.7,-74.548,-61.903,0.65955,5.1797e-05,-3.6806e-06,1,-0.07134,-0.99745,2.3999e-08,0.99745,-0.07134,-5.1928e-05,-0.0029551,0.0019647,0.00065967,0.00070736,1.0513e-09,-4.4686e-08,0.0029712,-0.00033077,-6.5845e-06,-3.9126e-09,-0.0029804,0.00065967,0.00199,0.99745,-0.071338,6.1327e-06,-6.0597e-06,1.2395e-06,1,-0.071338,-0.99745,8.0403e-07,0.00027271,-0.00024731,-0.00035617,4.6741e-09,-6.5423e-08,-7.4769e-05,-0.0032279,0.002212,0.0010158,-3.6229e-09,2.0737e-08,0.00078213,1,1,46.44,1736.4,0,3000
1.2657e-14,1.2657e-14,0.34114,-61.585,-74.548,-4.4519,0.00027831,-0.0038954,0.20019,69.751,0,0,0,-135.79,4524.8,3043.7,-74.548,-61.903,0.65955,5.1797e-05,-3.6806e-06,1,-0.07134,-0.99745,2.3999e-08,0.99745,-0.07134,-5.1928e-05,-0.0029551,0.0019647,0.00065967,0.00070736,1.0513e-09,-4.4686e-08,0.0029712,-0.00033077,-6.5845e-06,-3.9126e-09,-0.0029804,0.00065967,0.00199,0.99745,-0.071338,6.1327e-06,-6.0597e-06,1.2395e-06,1,-0.071338,-0.99745,8.0403e-07,0.00027271,-0.00024731,-0.00035617,4.6741e-09,-6.5423e-08,-7.4769e-05,-0.0032279,0.002212,0.0010158,-3.6229e-09,2.0737e-08,0.00078213,1,1,46.5,1736.5,0,3000
1.2803e-14,1.2803e-14,0.34114,-61.585,-74.548,-4.4519,0.00027831,-0.0038954,0.20019,69.751,0,0,0,-135.79,4524.8,3043.7,-74.548,-61.903,0.65955,5.1797e-05,-3.6806e-06,1,-0.07134,-0.99745,2.3999e-08,0.99745,-0.07134,-5.1928e-05,-0.0029551,0.0019647,0.00065967,0.00070736,1.0513e-09,-4.4686e-08,0.0029712,-0.00033077,-6.5845e-06,-3.9126e-09,-0.0029804,0.00065967,0.00199,0.99745,-0.071338,6.1327e-06,-6.0597e-06,1.2395e-06,1,-0.071338,-0.99745,8.0403e-07,0.00027271,-0.00024731,-0.00035617,4.6741e-09,-6.5423e-08,-7.4769e-05,-0.0032279,0.002212,0.0010158,-3.6229e-09,2.0737e-08,0.00078213,1,1,46.56,1736.6,0,3000
1.295e-14,1.295e-14,0.34114,-61.585,-74.548,-4.4519,0.00027831,-0.0038954,0.20019,69.751,0,0,0,-135.79,4524.8,3043.7,-74.548,-61.903,0.65955,5.1797e-05,-3.6806e-06,1,-0.07134,-0.99745,2.3999e-08,0.99745,-0.07134,-5.1928e-05,-0.0029551,0.0019647,0.00065967,0.00070736,1.0513e-09,-4.4686e-08,0.0029712,-0.00033077,-6.5845e-06,-3.9126e-09,-0.0029804,0.00065967,0.00199,0.99745,-0.071338,6.1327e-06,-6.0597e-06,1.2395e-06,1,-0.071338,-0.99745,8.0403e-07,0.00027271,-0.00024731,-0.00035617,4.6741e-09,-6.5423e-08,-7.4769e-05,-0.0032279,0.002212,0.0010158,-3.6229e-09,2.0737e-08,0.00078213,1,1,46.62,1736.6,0,3000
1.3096e-14,1.3096e-14,0.34114,-61.585,-74.548,-4.4519,0.00027831,-0.0038954,0.20019,69.751,0,0,0,-135.79,4524.8,3043.7,-74.548,-61.903,0.65955,5.1797e-05,-3.6806e-06,1,-0.07134,-0.99745,2.3999e-08,0.99745,-0.07134,-5.1928e-05,-0.0029551,0.0019647,0.00065967,0.00070736,1.0513e-09,-4.4686e-08,0.0029712,-0.00033077,-6.5845e-06,-3.9126e-09,-0.0029804,0.00065967,0.00199,0.99745,-0.071338,6.1327e-06,-6.0597e-06,1.2395e-06,1,-0.071338,-0.99745,8.0403e-07,0.00027271,-0.00024731,-0.00035617,4.6741e-09,-6.5423e-08,-7.4769e-05,-0.0032279,0.002212,0.0010158,-3.6229e-09,2.0737e-08,0.00078213,1,1,46.68,1736.7,0,3000
1.3243e-14,1.3243e-14,0.34114,-61.585,-74.548,-4.4519,0.00027831,-0.0038954,0.20019,69.751,0,0,0,-135.79,4524.8,3043.7,-74.548,-61.903,0.65955,5.1797e-05,-3.6806e-06,1,-0.07134,-0.99745,2.3999e-08,0.99745,-0.07134,-5.1928e-05,-0.0029551,0.0019647,0.00065967,0.00070736,1.0513e-09,-4.4686e-08,0.0029712,-0.00033077,-6.5845e-06,-3.9126e-09,-0.0029804,0.00065967,0.00199,0.99745,-0.071338,6.1327e-06,-6.0597e-06,1.2395e-06,1,-0.071338,-0.99745,8.0403e-07,0.00027271,-0.00024731,-0.00035617,4.6741e-09,-6.5423e-08,-7.4769e-05,-0.0032279,0.002212,0.0010158,-3.6229e-09,2.0737e-08,0.00078213,1,1,46.74,1736.7,0,3000
1.3389e-14,1.3389e-14,0.34114,-61.585,-74.548,-4.4519,0.00027831,-0.0038954,0.20019,69.751,0,0,0,-135.79,4524.8,3043.7,-74.548,-61.903,0.65955,5.1797e-05,-3.6806e-06,1,-0.07134,-0.99745,2.3999e-08,0.99745,-0.07134,-5.1928e-05,-0.0029551,0.0019647,0.00065967,0.00070736,1.0513e-09,-4.4686e-08,0.0029712,-0.00033077,-6.5845e-06,-3.9126e-09,-0.0029804,0.00065967,0.00199,0.99745,-0.071338,6.1327e-06,-6.0597e-06,1.2395e-06,1,-0.071338,-0.99745,8.0403e-07,0.00027271,-0.00024731,-0.00035617,4.6741e-09,-6.5423e-08,-7.4769e-05,-0.0032279,0.002212,0.0010158,-3.6229e-09,2.0737e-08,0.00078213,1,1,46.8,1736.8,0,3000
1.3536e-14,1.3536e-14,0.34114,-61.585,-74.548,-4.4519,0.00027831,-0.0038954,0.20019,69.751,0,0,0,-135.79,4524.8,3043.7,-74.548,-61.903,0.65955,5.1797e-05,-3.6806e-06,1,-0.07134,-0.99745,2.3999e-08,0.99745,-0.07134,-5.1928e-05,-0.0029551,0.0019647,0.00065967,0.00070736,1.0513e-09,-4.4686e-08,0.0029712,-0.00033077,-6.5845e-06,-3.9126e-09,-0.0029804,0.00065967,0.00199,0.99745,-0.071338,6.1327e-06,-6.0597e-06,1.2395e-06,1,-0.071338,-0.99745,8.0403e-07,0.00027271,-0.00024731,-0.00035617,4.6741e-09,-6.5423e-08,-7.4769e-05,-0.0032279,0.002212,0.0010158,-3.6229e-09,2.0737e-08,0.00078213,1,1,46.86,1736.9,0,3000
1.3682e-14,1.3682e-14,0.34114,-61.585,-74.548,-4.4519,0.00027831,-0.0038954,0.20019,69.751,0,0,0,-135.79,4524.8,3043.7,-74.548,-61.903,0.65955,5.1797e-05,-3.6806e-06,1,-0.07134,-0.99745,2.3999e-08,0.99745,-0.07134,-5.1928e-05,-0.0029551,0.0019647,0.00065967,0.00070736,1.0513e-09,-4.4686e-08,0.0029712,-0.00033077,-6.5845e-06,-3.9126e-09,-0.0029804,0.00065967,0.00199,0.99745,-0.071338,6.1327e-06,-6.0597e-06,1.2395e-06,1,-0.071338,-0.99745,8.0403e-07,0.00027271,-0.00024731,-0.00035617,4.6741e-09,-6.5423e-08,-7.4769e-05,-0.0032279,0.002212,0.0010158,-3.6229e-09,2.0737e-08,0.00078213,1,1,46.92,1736.9,0,3000
1.3829e-14,1.3829e-14,0.34114,-61.585,-74.548,-4.4519,0.00027831,-0.0038954,0.20019,69.751,0,0,0,-135.79,4524.8,3043.7,-74.548,-61.903,0.65955,5.1797e-05,-3.6806e-06,1,-0.07134,-0.99745,2.3999e-08,0.99745,-0.07134,-5.1928e-05,-0.0029551,0.0019647,0.00065967,0.00070736,1.0513e-09,-4.4686e-08,0.0029712,-0.00033077,-6.5845e-06,-3.9126e-09,-0.0029804,0.00065967,0.00199,0.99745,-0.071338,6.1327e-06,-6.0597e-06,1.2395e-06,1,-0.071338,-0.99745,8.0403e-07,0.00027271,-0.00024731,-0.00035617,4.6741e-09,-6.5423e-08,-7.4769e-05,-0.0032279,0.002212,0.0010158,-3.6229e-09,2.0737e-08,0.00078213,1,1,46.98,1737,0,3000
1.27e-14,1.27e-14,0.2639,-68.212,-81.21,-4.9227,0.00027289,-0.0038249,0.21093,76.294,0,0,0,-149.16,5475.8,3429.9,-81.21,-68.564,0.61599,4.6747e-05,-3.2899e-06,1,-0.07134,-0.99745,5.3464e-08,0.99745,-0.07134,-4.6863e-05,-0.0029846,0.0019617,0.00065959,0.00071116,1.4868e-09,-5.3747e-08,0.0029889,-0.00036333,-6.656e-06,-3.9452e-09,-0.00301,0.00065959,0.0019871,0.99745,-0.071338,7.319e-06,-7.2372e-06,1.4054e-06,1,-0.071338,-0.99745,8.8554e-07,0.00029862,-0.0002764,-0.00038555,4.5831e-09,-6.4239e-08,-8.2677e-05,-0.0032832,0.0022381,0.0010451,-3.0963e-09,1.0492e-08,0.00079384,1,1,47.04,1737,0,3000
1.0936e-14,1.0936e-14,0.2639,-68.212,-81.21,-4.9227,0.00027289,-0.0038249,0.21093,76.294,0,0,0,-149.16,5475.8,3429.9,-81.21,-68.564,0.61599,4.6747e-05,-3.2899e-06,1,-0.07134,-0.99745,5.3464e-08,0.99745,-0.07134,-4.6863e-05,-0.0029846,0.0019617,0.00065959,0.00071116,1.4868e-09,-5.3747e-08,0.0029889,-0.00036333,-6.656e-06,-3.9452e-09,-0.00301,0.00065959,0.0019871,0.99745,-0.071338,7.319e-06,-7.2372e-06,1.4054e-06,1,-0.071338,-0.99745,8.8554e-07,0.00029862,-0.0002764,-0.00038555,4.5831e-09,-6.4239e-08,-8.2677e-05,-0.0032832,0.0022381,0.0010451,-3.0963e-09,1.0492e-08,0.00079384,1,1,47.1,1737.1,0,3000
9.1694e-15,9.1694e-15,0.2639,-68.212,-81.21,-4.9227,0.00027289,-0.0038249,0.21093,76.294,0,0,0,-149.16,5475.8,3429.9,-81.21,-68.564,0.61599,4.6747e-05,-3.2899e-06,1,-0.07134,-0.99745,5.3464e-08,0.99745,-0.07134,-4.6863e-05,-0.0029846,0.0019617,0.00065959,0.00071116,1.4868e-09,-5.3747e-08,0.0029889,-0.00036333,-6.656e-06,-3.9452e-09,-0.00301,0.00065959,0.0019871,0.99745,-0.071338,7.319e-06,-7.2372e-06,1.4054e-06,1,-0.071338,-0.99745,8.8554e-07,0.00029862,-0.0002764,-0.00038555,4.5831e-09,-6.4239e-08,-8.2677e-05,-0.0032832,0.0022381,0.0010451,-3.0963e-09,1.0492e-08,0.00079384,1,1,47.16,1737.2,0,3000
7.406e-15,7.406e-15,0.2639,-68.212,-81.21,-4.9227,0.00027289,-0.0038249,0.21093,76.294,0,0,0,-149.16,5475.8,3429.9,-81.21,-68.564,0.61599,4.6747e-05,-3.2899e-06,1,-0.07134,-0.99745,5.3464e-08,0.99745,-0.07134,-4.6863e-05,-0.0029846,0.0019617,0.00065959,0.00071116,1.4868e-09,-5.3747e-08,0.0029889,-0.00036333,-6.656e-06,-3.9452e-09,-0.00301,0.00065959,0.0019871,0.99745,-0.071338,7.319e-06,-7.2372e-06,1.4054e-06,1,-0.071338,-0.99745,8.8554e-07,0.00029862,-0.0002764,-0.00038555,4.5831e-09,-6.4239e-08,-8.2677e-05,-0.0032832,0.0022381,0.0010451,-3.0963e-09,1.0492e-08,0.00079384,1,1,47.22,1737.2,0,3000
5.6391e-15,5.6391e-15,0.2639,-68.212,-81.21,-4.9227,0.00027289,-0.0038249,0.21093,76.294,0,0,0,-149.16,5475.8,3429.9,-81.21,-68.564,0.61599,4.6747e-05,-3.2899e-06,1,-0.07134,-0.99745,5.3464e-08,0.99745,-0.07134,-4.6863e-05,-0.0029846,0.0019617,0.00065959,0.00071116,1.4868e-09,-5.3747e-08,0.0029889,-0.00036333,-6.656e-06,-3.9452e-09,-0.00301,0.00065959,0.0019871,0.99745,-0.071338,7.319e-06,-7.2372e-06,1.4054e-06,1,-0.071338,-0.99745,8.8554e-07,0.00029862,-0.0002764,-0.00038555,4.5831e-09,-6.4239e-08,-8.2677e-05,-0.0032832,0.0022381,0.0010451,-3.0963e-09,1.0492e-08,0.00079384,1,1,47.28,1737.3,0,3000
3.8757e-15,3.8757e-15,0.2639,-68.212,-81.21,-4.9227,0.00027289,-0.0038249,0.21093,76.294,0,0,0,-149.16,5475.8,3429.9,-81.21,-68.564,0.61599,4.6747e-05,-3.2899e-06,1,-0.07134,-0.99745,5.3464e-08,0.99745,-0.07134,-4.6863e-05,-0.0029846,0.0019617,0.00065959,0.00071116,1.4868e-09,-5.3747e-08,0.0029889,-0.00036333,-6.656e-06,-3.9452e-09,-0.00301,0.00065959,0.0019871,0.99745,-0.071338,7.319e-06,-7.2372e-06,1.4054e-06,1,-0.071338,-0.99745,8.8554e-07,0.00029862,-0.0002764,-0.00038555,4.5831e-09,-6.4239e-08,-8.2677e-05,-0.0032832,0.0022381,0.0010451,-3.0963e-09,1.0492e-08,0.00079384,1,1,47.34,1737.3,0,3000
2.1087e-15,2.1087e-15,0.2639,-68.212,-81.21,-4.9227,0.00027289,-0.0038249,0.21093,76.294,0,0,0,-149.16,5475.8,3429.9,-81.21,-68.564,0.61599,4.6747e-05,-3.2899e-06,1,-0.07134,-0.99745,5.3464e-08,0.99745,-0.07134,-4.6863e-05,-0.0029846,0.0019617,0.00065959,0.00071116,1.4868e-09,-5.3747e-08,0.0029889,-0.00036333,-6.656e-06,-3.9452e-09,-0.00301,0.00065959,0.0019871,0.99745,-0.071338,7.319e-06,-7.2372e-06,1.4054e-06,1,-0.071338,-0.99745,8.8554e-07,0.00029862,-0.0002764,-0.00038555,4.5831e-09,-6.4239e-08,-8.2677e-05,-0.0032832,0.0022381,0.0010451,-3.0963e-09,1.0492e-08,0.00079384,1,1,47.4,1737.4,0,3000
3.4532e-16,3.4532e-16,0.2639,-68.212,-81.21,-4.9227,0.00027289,-0.0038249,0.21093,76.294,0,0,0,-149.16,5475.8,3429.9,-81.21,-68.564,0.61599,4.6747e-05,-3.2899e-06,1,-0.07134,-0.99745,5.3464e-08,0.99745,-0.07134,-4.6863e-05,-0.0029846,0.0019617,0.00065959,0.00071116,1.4868e-09,-5.3747e-08,0.0029889,-0.00036333,-6.656e-06,-3.9452e-09,-0.00301,0.00065959,0.0019871,0.99745,-0.071338,7.319e-06,-7.2372e-06,1.4054e-06,1,-0.071338,-0.99745,8.8554e-07,0.00029862,-0.0002764,-0.00038555,4.5831e-09,-6.4239e-08,-8.2677e-05,-0.0032832,0.0022381,0.0010451,-3.0963e-09,1.0492e-08,0.00079384,1,1,47.46,1737.5,0,3000
-1.4217e-15,-1.4217e-15,0.2639,-68.212,-81.21,-4.9227,0.00027289,-0.0038249,0.21093,76.294,0,0,0,-149.16,5475.8,3429.9,-81.21,-68.564,0.61599,4.6747e-05,-3.2899e-06,1,-0.07134,-0.99745,5.3464e-08,0.99745,-0.07134,-4.6863e-05,-0.0029846,0.0019617,0.00065959,0.00071116,1.4868e-09,-5.3747e-08,0.0029889,-0.00036333,-6.656e-06,-3.9452e-09,-0.00301,0.00065959,0.0019871,0.99745,-0.071338,7.319e-06,-7.2372e-06,1.4054e-06,1,-0.071338,-0.99745,8.8554e-07,0.00029862,-0.0002764,-0.00038555,4.5831e-09,-6.4239e-08,-8.2677e-05,-0.0032832,0.0022381,0.0010451,-3.0963e-09,1.0492e-08,0.00079384,1,1,47.52,1737.5,0,3000
-3.185e-15,-3.185e-15,0.2639,-68.212,-81.21,-4.9227,0.00027289,-0.0038249,0.21093,76.294,0,0,0,-149.16,5475.8,3429.9,-81.21,-68.564,0.61599,4.6747e-05,-3.2899e-06,1,-0.07134,-0.99745,5.3464e-08,0.99745,-0.07134,-4.6863e-05,-0.0029846,0.0019617,0.00065959,0.00071116,1.4868e-09,-5.3747e-08,0.0029889,-0.00036333,-6.656e-06,-3.9452e-09,-0.00301,0.00065959,0.0019871,0.99745,-0.071338,7.319e-06,-7.2372e-06,1.4054e-06,1,-0.071338,-0.99745,8.8554e-07,0.00029862,-0.0002764,-0.00038555,4.5831e-09,-6.4239e-08,-8.2677e-05,-0.0032832,0.0022381,0.0010451,-3.0963e-09,1.0492e-08,0.00079384,1,1,47.58,1737.6,0,3000
-4.952e-15,-4.952e-15,0.2639,-68.212,-81.21,-4.9227,0.00027289,-0.0038249,0.21093,76.294,0,0,0,-149.16,5475.8,3429.9,-81.21,-68.564,0.61599,4.6747e-05,-3.2899e-06,1,-0.07134,-0.99745,5.3464e-08,0.99745,-0.07134,-4.6863e-05,-0.0029846,0.0019617,0.00065959,0.00071116,1.4868e-09,-5.3747e-08,0.0029889,-0.00036333,-6.656e-06,-3.9452e-09,-0.00301,0.00065959,0.0019871,0.99745,-0.071338,7.319e-06,-7.2372e-06,1.4054e-06,1,-0.071338,-0.99745,8.8554e-07,0.00029862,-0.0002764,-0.00038555,4.5831e-09,-6.4239e-08,-8.2677e-05,-0.0032832,0.0022381,0.0010451,-3.0963e-09,1.0492e-08,0.00079384,1,1,47.64,1737.6,0,3000
-6.7154e-15,-6.7154e-15,0.2639,-68.212,-81.21,-4.9227,0.00027289,-0.0038249,0.21093,76.294,0,0,0,-149.16,5475.8,3429.9,-81.21,-68.564,0.61599,4.6747e-05,-3.2899e-06,1,-0.07134,-0.99745,5.3464e-08,0.99745,-0.07134,-4.6863e-05,-0.0029846,0.0019617,0.00065959,0.00071116,1.4868e-09,-5.3747e-08,0.0029889,-0.00036333,-6.656e-06,-3.9452e-09,-0.00301,0.00065959,0.0019871,0.99745,-0.071338,7.319e-06,-7.2372e-06,1.4054e-06,1,-0.071338,-0.99745,8.8554e-07,0.00029862,-0.0002764,-0.00038555,4.5831e-09,-6.4239e-08,-8.2677e-05,-0.0032832,0.0022381,0.0010451,-3.0963e-09,1.0492e-08,0.00079384,1,1,47.7,1737.7,0,3000
-8.4824e-15,-8.4824e-15,0.2639,-68.212,-81.21,-4.9227,0.00027289,-0.0038249,0.21093,76.294,0,0,0,-149.16,5475.8,3429.9,-81.21,-68.564,0.61599,4.6747e-05,-3.2899e-06,1,-0.07134,-0.99745,5.3464e-08,0.99745,-0.07134,-4.6863e-05,-0.0029846,0.0019617,0.00065959,0.00071116,1.4868e-09,-5.3747e-08,0.0029889,-0.00036333,-6.656e-06,-3.9452e-09,-0.00301,0.00065959,0.0019871,0.99745,-0.071338,7.319e-06,-7.2372e-06,1.4054e-06,1,-0.071338,-0.99745,8.8554e-07,0.00029862,-0.0002764,-0.00038555,4.5831e-09,-6.4239e-08,-8.2677e-05,-0.0032832,0.0022381,0.0010451,-3.0963e-09,1.0492e-08,0.00079384,1,1,47.76,1737.8,0,3000
-1.0246e-14,-1.0246e-14,0.2639,-68.212,-81.21,-4.9227,0.00027289,-0.0038249,0.21093,76.294,0,0,0,-149.16,5475.8,3429.9,-81.21,-68.564,0.61599,4.6747e-05,-3.2899e-06,1,-0.07134,-0.99745,5.3464e-08,0.99745,-0.07134,-4.6863e-05,-0.0029846,0.0019617,0.00065959,0.00071116,1.4868e-09,-5.3747e-08,0.0029889,-0.00036333,-6.656e-06,-3.9452e-09,-0.00301,0.00065959,0.0019871,0.99745,-0.071338,7.319e-06,-7.2372e-06,1.4054e-06,1,-0.071338,-0.99745,8.8554e-07,0.00029862,-0.0002764,-0.00038555,4.5831e-09,-6.4239e-08,-8.2677e-05,-0.0032832,0.0022381,0.0010451,-3.0963e-09,1.0492e-08,0.00079384,1,1,47.82,1737.8,0,3000
-1.2013e-14,-1.2013e-14,0.2639,-68.212,-81.21,-4.9227,0.00027289,-0.0038249,0.21093,76.294,0,0,0,-149.16,5475.8,3429.9,-81.21,-68.564,0.61599,4.6747e-05,-3.2899e-06,1,-0.07134,-0.99745,5.3464e-08,0.99745,-0.07134,-4.6863e-05,-0.0029846,0.0019617,0.00065959,0.00071116,1.4868e-09,-5.3747e-08,0.0029889,-0.00036333,-6.656e-06,-3.9452e-09,-0.00301,0.00065959,0.0019871,0.99745,-0.071338,7.319e-06,-7.2372e-06,1.4054e-06,1,-0.071338,-0.99745,8.8554e-07,0.00029862,-0.0002764,-0.00038555,4.5831e-09,-6.4239e-08,-8.2677e-05,-0.0032832,0.0022381,0.0010451,-3.0963e-09,1.0492e-08,0.00079384,1,1,47.88,1737.9,0,3000
-1.3776e-14,-1.3776e-14,0.2639,-68.212,-81.21,-4.9227,0.00027289,-0.0038249,0.21093,76.294,0,0,0,-149.16,5475.8,3429.9,-81.21,-68.564,0.61599,4.6747e-05,-3.2899e-06,1,-0.07134,-0.99745,5.3464e-08,0.99745,-0.07134,-4.6863e-05,-0.0029846,0.0019617,0.00065959,0.00071116,1.4868e-09,-5.3747e-08,0.0029889,-0.00036333,-6.656e-06,-3.9452e-09,-0.00301,0.00065959,0.0019871,0.99745,-0.071338,7.319e-06,-7.2372e-06,1.4054e-06,1,-0.071338,-0.99745,8.8554e-07,0.00029862,-0.0002764,-0.00038555,4.5831e-09,-6.4239e-08,-8.2677e-05,-0.0032832,0.0022381,0.0010451,-3.0963e-09,1.0492e-08,0.00079384,1,1,47.94,1737.9,0,3000
-1.5543e-14,-1.5543e-14,0.2639,-68.212,-81.21,-4.9227,0.00027289,-0.0038249,0.21093,76.294,0,0,0,-149.16,5475.8,3429.9,-81.21,-68.564,0.61599,4.6747e-05,-3.2899e-06,1,-0.07134,-0.99745,5.3464e-08,0.99745,-0.07134,-4.6863e-05,-0.0029846,0.0019617,0.00065959,0.00071116,1.4868e-09,-5.3747e-08,0.0029889,-0.00036333,-6.656e-06,-3.9452e-09,-0.00301,0.00065959,0.0019871,0.99745,-0.071338,7.319e-06,-7.2372e-06,1.4054e-06,1,-0.071338,-0.99745,8.8554e-07,0.00029862,-0.0002764,-0.00038555,4.5831e-09,-6.4239e-08,-8.2677e-05,-0.0032832,0.0022381,0.0010451,-3.0963e-09,1.0492e-08,0.00079384,1,1,48,1738,0,3000
-1.3863e-14,-1.3863e-14,0.18297,-74.827,-87.839,-5.3925,0.00026787,-0.0037595,0.22252,82.82,0,0,0,-162.48,6513.9,3756.9,-87.839,-75.213,0.56866,4.2529e-05,-2.9612e-06,1,-0.07134,-0.99745,8.0369e-08,0.99745,-0.07134,-4.2632e-05,-0.0030139,0.0019587,0.00065951,0.00071494,2.0592e-09,-6.4571e-08,0.0030065,-0.00039579,-6.727e-06,-3.9775e-09,-0.0030395,0.00065951,0.0019842,0.99745,-0.071338,8.7257e-06,-8.6348e-06,1.5834e-06,1,-0.071338,-0.99745,9.634e-07,0.00032442,-0.00030547,-0.00041474,4.4988e-09,-6.314e-08,-9.0566e-05,-0.0033384,0.0022641,0.0010742,-2.4397e-09,-1.4314e-09,0.00080551,1,1,48.06,1738.1,0,3000
-1.2186e-14,-1.2186e-14,0.18297,-74.827,-87.839,-5.3925,0.00026787,-0.0037595,0.22252,82.82,0,0,0,-162.48,6513.9,3756.9,-87.839,-75.213,0.56866,4.2529e-05,-2.9612e-06,1,-0.07134,-0.99745,8.0369e-08,0.99745,-0.07134,-4.2632e-05,-0.0030139,0.0019587,0.00065951,0.00071494,2.0592e-09,-6.4571e-08,0.0030065,-0.00039579,-6.727e-06,-3.9775e-09,-0.0030395,0.00065951,0.0019842,0.99745,-0.071338,8.7257e-06,-8.6348e-06,1.5834e-06,1,-0.071338,-0.99745,9.634e-07,0.00032442,-0.00030547,-0.00041474,4.4988e-09,-6.314e-08,-9.0566e-05,-0.0033384,0.0022641,0.0010742,-2.4397e-09,-1.4314e-09,0.00080551,1,1,48.12,1738.1,0,3000
-1.0506e-14,-1.0506e-14,0.18297,-74.827,-87.839,-5.3925,0.00026787,-0.0037595,0.22252,82.82,0,0,0,-162.48,6513.9,3756.9,-87.839,-75.213,0.56866,4.2529e-05,-2.9612e-06,1,-0.07134,-0.99745,8.0369e-08,0.99745,-0.07134,-4.2632e-05,-0.0030139,0.0019587,0.00065951,0.00071494,2.0592e-09,-6.4571e-08,0.0030065,-0.00039579,-6.727e-06,-3.9775e-09,-0.0030395,0.00065951,0.0019842,0.99745,-0.071338,8.7257e-06,-8.6348e-06,1.5834e-06,1,-0.071338,-0.99745,9.634e-07,0.00032442,-0.00030547,-0.00041474,4.4988e-09,-6.314e-08,-9.0566e-05,-0.0033384,0.0022641,0.0010742,-2.4397e-09,-1.4314e-09,0.00080551,1,1,48.18,1738.2,0,3000
-8.8288e-15,-8.8288e-15,0.18297,-74.827,-87.839,-5.3925,0.00026787,-0.0037595,0.22252,82.82,0,0,0,-162.48,6513.9,3756.9,-87.839,-75.213,0.56866,4.2529e-05,-2.9612e-06,1,-0.07134,-0.99745,8.0369e-08,0.99745,-0.07134,-4.2632e-05,-0.0030139,0.0019587,0.00065951,0.00071494,2.0592e-09,-6.4571e-08,0.0030065,-0.00039579,-6.727e-06,-3.9775e-09,-0.0030395,0.00065951,0.0019842,0.99745,-0.071338,8.7257e-06,-8.6348e-06,1.5834e-06,1,-0.071338,-0.99745,9.634e-07,0.00032442,-0.00030547,-0.00041474,4.4988e-09,-6.314e-08,-9.0566e-05,-0.0033384,0.0022641,0.0010742,-2.4397e-09,-1.4314e-09,0.00080551,1,1,48.24,1738.2,0,3000
-7.1485e-15,-7.1485e-15,0.18297,-74.827,-87.839,-5.3925,0.00026787,-0.0037595,0.22252,82.82,0,0,0,-162.48,6513.9,3756.9,-87.839,-75.213,0.56866,4.2529e-05,-2.9612e-06,1,-0.07134,-0.99745,8.0369e-08,0.99745,-0.07134,-4.2632e-05,-0.0030139,0.0019587,0.00065951,0.00071494,2.0592e-09,-6.4571e-08,0.0030065,-0.00039579,-6.727e-06,-3.9775e-09,-0.0030395,0.00065951,0.0019842,0.99745,-0.071338,8.7257e-06,-8.6348e-06,1.5834e-06,1,-0.071338,-0.99745,9.634e-07,0.00032442,-0.00030547,-0.00041474,4.4988e-09,-6.314e-08,-9.0566e-05,-0.0033384,0.0022641,0.0010742,-2.4397e-09,-1.4314e-09,0.00080551,1,1,48.3,1738.3,0,3000
-5.4716e-15,-5.4716e-15,0.18297,-74.827,-87.839,-5.3925,0.00026787,-0.0037595,0.22252,82.82,0,0,0,-162.48,6513.9,3756.9,-87.839,-75.213,0.56866,4.2529e-05,-2.9612e-06,1,-0.07134,-0.99745,8.0369e-08,0.99745,-0.07134,-4.2632e-05,-0.0030139,0.0019587,0.00065951,0.00071494,2.0592e-09,-6.4571e-08,0.0030065,-0.00039579,-6.727e-06,-3.9775e-09,-0.0030395,0.00065951,0.0019842,0.99745,-0.071338,8.7257e-06,-8.6348e-06,1.5834e-06,1,-0.071338,-0.99745,9.634e-07,0.00032442,-0.00030547,-0.00041474,4.4988e-09,-6.314e-08,-9.0566e-05,-0.0033384,0.0022641,0.0010742,-2.4397e-09,-1.4314e-09,0.00080551,1,1,48.36,1738.4,0,3000
-3.7913e-15,-3.7913e-15,0.18297,-74.827,-87.839,-5.3925,0.00026787,-0.0037595,0.22252,82.82,0,0,0,-162.48,6513.9,3756.9,-87.839,-75.213,0.56866,4.2529e-05,-2.9612e-06,1,-0.07134,-0.99745,8.0369e-08,0.99745,-0.07134,-4.2632e-05,-0.0030139,0.0019587,0.00065951,0.00071494,2.0592e-09,-6.4571e-08,0.0030065,-0.00039579,-6.727e-06,-3.9775e-09,-0.0030395,0.00065951,0.0019842,0.99745,-0.071338,8.7257e-06,-8.6348e-06,1.5834e-06,1,-0.071338,-0.99745,9.634e-07,0.00032442,-0.00030547,-0.00041474,4.4988e-09,-6.314e-08,-9.0566e-05,-0.0033384,0.0022641,0.0010742,-2.4397e-09,-1.4314e-09,0.00080551,1,1,48.42,1738.4,0,3000
-2.1144e-15,-2.1144e-15,0.18297,-74.827,-87.839,-5.3925,0.00026787,-0.0037595,0.22252,82.82,0,0,0,-162.48,6513.9,3756.9,-87.839,-75.213,0.56866,4.2529e-05,-2.9612e-06,1,-0.07134,-0.99745,8.0369e-08,0.99745,-0.07134,-4.2632e-05,-0.0030139,0.0019587,0.00065951,0.00071494,2.0592e-09,-6.4571e-08,0.0030065,-0.00039579,-6.727e-06,-3.9775e-09,-0.0030395,0.00065951,0.0019842,0.99745,-0.071338,8.7257e-06,-8.6348e-06,1.5834e-06,1,-0.071338,-0.99745,9.634e-07,0.00032442,-0.00030547,-0.00041474,4.4988e-09,-6.314e-08,-9.0566e-05,-0.0033384,0.0022641,0.0010742,-2.4397e-09,-1.4314e-09,0.00080551,1,1,48.48,1738.5,0,3000
-4.3411e-16,-4.3411e-16,0.18297,-74.827,-87.839,-5.3925,0.00026787,-0.0037595,0.22252,82.82,0,0,0,-162.48,6513.9,3756.9,-87.839,-75.213,0.56866,4.2529e-05,-2.9612e-06,1,-0.07134,-0.99745,8.0369e-08,0.99745,-0.07134,-4.2632e-05,-0.0030139,0.0019587,0.00065951,0.00071494,2.0592e-09,-6.4571e-08,0.0030065,-0.00039579,-6.727e-06,-3.9775e-09,-0.0030395,0.00065951,0.0019842,0.99745,-0.071338,8.7257e-06,-8.6348e-06,1.5834e-06,1,-0.071338,-0.99745,9.634e-07,0.00032442,-0.00030547,-0.00041474,4.4988e-09,-6.314e-08,-9.0566e-05,-0.0033384,0.0022641,0.0010742,-2.4397e-09,-1.4314e-09,0.00080551,1,1,48.54,1738.5,0,3000
1.2428e-15,1.2428e-15,0.18297,-74.827,-87.839,-5.3925,0.00026787,-0.0037595,0.22252,82.82,0,0,0,-162.48,6513.9,3756.9,-87.839,-75.213,0.56866,4.2529e-05,-2.9612e-06,1,-0.07134,-0.99745,8.0369e-08,0.99745,-0.07134,-4.2632e-05,-0.0030139,0.0019587,0.00065951,0.00071494,2.0592e-09,-6.4571e-08,0.0030065,-0.00039579,-6.727e-06,-3.9775e-09,-0.0030395,0.00065951,0.0019842,0.99745,-0.071338,8.7257e-06,-8.6348e-06,1.5834e-06,1,-0.071338,-0.99745,9.634e-07,0.00032442,-0.00030547,-0.00041474,4.4988e-09,-6.314e-08,-9.0566e-05,-0.0033384,0.0022641,0.0010742,-2.4397e-09,-1.4314e-09,0.00080551,1,1,48.6,1738.6,0,3000
2.9231e-15,2.9231e-15,0.18297,-74.827,-87.839,-5.3925,0.00026787,-0.0037595,0.22252,82.82,0,0,0,-162.48,6513.9,3756.9,-87.839,-75.213,0.56866,4.2529e-05,-2.9612e-06,1,-0.07134,-0.99745,8.0369e-08,0.99745,-0.07134,-4.2632e-05,-0.0030139,0.0019587,0.00065951,0.00071494,2.0592e-09,-6.4571e-08,0.0030065,-0.00039579,-6.727e-06,-3.9775e-09,-0.0030395,0.00065951,0.0019842,0.99745,-0.071338,8.7257e-06,-8.6348e-06,1.5834e-06,1,-0.071338,-0.99745,9.634e-07,0.00032442,-0.00030547,-0.00041474,4.4988e-09,-6.314e-08,-9.0566e-05,-0.0033384,0.0022641,0.0010742,-2.4397e-09,-1.4314e-09,0.00080551,1,1,48.66,1738.7,0,3000
4.5999e-15,4.5999e-15,0.18297,-74.827,-87.839,-5.3925,0.00026787,-0.0037595,0.22252,82.82,0,0,0,-162.48,6513.9,3756.9,-87.839,-75.213,0.56866,4.2529e-05,-2.9612e-06,1,-0.07134,-0.99745,8.0369e-08,0.99745,-0.07134,-4.2632e-05,-0.0030139,0.0019587,0.00065951,0.00071494,2.0592e-09,-6.4571e-08,0.0030065,-0.00039579,-6.727e-06,-3.9775e-09,-0.0030395,0.00065951,0.0019842,0.99745,-0.071338,8.7257e-06,-8.6348e-06,1.5834e-06,1,-0.071338,-0.99745,9.634e-07,0.00032442,-0.00030547,-0.00041474,4.4988e-09,-6.314e-08,-9.0566e-05,-0.0033384,0.0022641,0.0010742,-2.4397e-09,-1.4314e-09,0.00080551,1,1,48.72,1738.7,0,3000
6.2802e-15,6.2802e-15,0.18297,-74.827,-87.839,-5.3925,0.00026787,-0.0037595,0.22252,82.82,0,0,0,-162.48,6513.9,3756.9,-87.839,-75.213,0.56866,4.2529e-05,-2.9612e-06,1,-0.07134,-0.99745,8.0369e-08,0.99745,-0.07134,-4.2632e-05,-0.0030139,0.0019587,0.00065951,0.00071494,2.0592e-09,-6.4571e-08,0.0030065,-0.00039579,-6.727e-06,-3.9775e-09,-0.0030395,0.00065951,0.0019842,0.99745,-0.071338,8.7257e-06,-8.6348e-06,1.5834e-06,1,-0.071338,-0.99745,9.634e-07,0.00032442,-0.00030547,-0.00041474,4.4988e-09,-6.314e-08,-9.0566e-05,-0.0033384,0.0022641,0.0010742,-2.4397e-09,-1.4314e-09,0.00080551,1,1,48.78,1738.8,0,3000
7.9571e-15,7.9571e-15,0.18297,-74.827,-87.839,-5.3925,0.00026787,-0.0037595,0.22252,82.82,0,0,0,-162.48,6513.9,3756.9,-87.839,-75.213,0.56866,4.2529e-05,-2.9612e-06,1,-0.07134,-0.99745,8.0369e-08,0.99745,-0.07134,-4.2632e-05,-0.0030139,0.0019587,0.00065951,0.00071494,2.0592e-09,-6.4571e-08,0.0030065,-0.00039579,-6.727e-06,-3.9775e-09,-0.0030395,0.00065951,0.0019842,0.99745,-0.071338,8.7257e-06,-8.6348e-06,1.5834e-06,1,-0.071338,-0.99745,9.634e-07,0.00032442,-0.00030547,-0.00041474,4.4988e-09,-6.314e-08,-9.0566e-05,-0.0033384,0.0022641,0.0010742,-2.4397e-09,-1.4314e-09,0.00080551,1,1,48.84,1738.8,0,3000
9.6374e-15,9.6374e-15,0.18297,-74.827,-87.839,-5.3925,0.00026787,-0.0037595,0.22252,82.82,0,0,0,-162.48,6513.9,3756.9,-87.839,-75.213,0.56866,4.2529e-05,-2.9612e-06,1,-0.07134,-0.99745,8.0369e-08,0.99745,-0.07134,-4.2632e-05,-0.0030139,0.0019587,0.00065951,0.00071494,2.0592e-09,-6.4571e-08,0.0030065,-0.00039579,-6.727e-06,-3.9775e-09,-0.0030395,0.00065951,0.0019842,0.99745,-0.071338,8.7257e-06,-8.6348e-06,1.5834e-06,1,-0.071338,-0.99745,9.634e-07,0.00032442,-0.00030547,-0.00041474,4.4988e-09,-6.314e-08,-9.0566e-05,-0.0033384,0.0022641,0.0010742,-2.4397e-09,-1.4314e-09,0.00080551,1,1,48.9,1738.9,0,3000
1.1314e-14,1.1314e-14,0.18297,-74.827,-87.839,-5.3925,0.00026787,-0.0037595,0.22252,82.82,0,0,0,-162.48,6513.9,3756.9,-87.839,-75.213,0.56866,4.2529e-05,-2.9612e-06,1,-0.07134,-0.99745,8.0369e-08,0.99745,-0.07134,-4.2632e-05,-0.0030139,0.0019587,0.00065951,0.00071494,2.0592e-09,-6.4571e-08,0.0030065,-0.00039579,-6.727e-06,-3.9775e-09,-0.0030395,0.00065951,0.0019842,0.99745,-0.071338,8.7257e-06,-8.6348e-06,1.5834e-06,1,-0.071338,-0.99745,9.634e-07,0.00032442,-0.00030547,-0.00041474,4.4988e-09,-6.314e-08,-9.0566e-05,-0.0033384,0.0022641,0.0010742,-2.4397e-09,-1.4314e-09,0.00080551,1,1,48.96,1739,0,3000
1.2848e-14,1.2848e-14,0.098385,-81.427,-94.422,-5.8609,0.00026322,-0.0036988,0.23515,89.319,0,0,0,-175.75,7636.9,3999.8,-94.422,-81.846,0.51757,3.8966e-05,-2.6817e-06,1,-0.07134,-0.99745,1.0493e-07,0.99745,-0.07134,-3.9058e-05,-0.0030431,0.0019556,0.00065942,0.0007187,2.8191e-09,-7.7839e-08,0.003024,-0.00042811,-6.7974e-06,-4.0095e-09,-0.0030688,0.00065942,0.0019813,0.99745,-0.071338,1.0439e-05,-1.0339e-05,1.7789e-06,1,-0.071338,-0.99745,1.0368e-06,0.00035007,-0.00033453,-0.00044366,4.4208e-09,-6.212e-08,-9.8433e-05,-0.0033932,0.0022901,0.0011031,-1.6017e-09,-1.5719e-08,0.00081713,1,1,49.02,1739,0,3000
1.4086e-14,1.4086e-14,0.098385,-81.427,-94.422,-5.8609,0.00026322,-0.0036988,0.23515,89.319,0,0,0,-175.75,7636.9,3999.8,-94.422,-81.846,0.51757,3.8966e-05,-2.6817e-06,1,-0.07134,-0.99745,1.0493e-07,0.99745,-0.07134,-3.9058e-05,-0.0030431,0.0019556,0.00065942,0.0007187,2.8191e-09,-7.7839e-08,0.003024,-0.00042811,-6.7974e-06,-4.0095e-09,-0.0030688,0.00065942,0.0019813,0.99745,-0.071338,1.0439e-05,-1.0339e-05,1.7789e-06,1,-0.071338,-0.99745,1.0368e-06,0.00035007,-0.00033453,-0.00044366,4.4208e-09,-6.212e-08,-9.8433e-05,-0.0033932,0.0022901,0.0011031,-1.6017e-09,-1.5719e-08,0.00081713,1,1,49.08,1739.1,0,3000
1.5326e-14,1.5326e-14,0.098385,-81.427,-94.422,-5.8609,0.00026322,-0.0036988,0.23515,89.319,0,0,0,-175.75,7636.9,3999.8,-94.422,-81.846,0.51757,3.8966e-05,-2.6817e-06,1,-0.07134,-0.99745,1.0493e-07,0.99745,-0.07134,-3.9058e-05,-0.0030431,0.0019556,0.00065942,0.0007187,2.8191e-09,-7.7839e-08,0.003024,-0.00042811,-6.7974e-06,-4.0095e-09,-0.0030688,0.00065942,0.0019813,0.99745,-0.071338,1.0439e-05,-1.0339e-05,1.7789e-06,1,-0.071338,-0.99745,1.0368e-06,0.00035007,-0.00033453,-0.00044366,4.4208e-09,-6.212e-08,-9.8433e-05,-0.0033932,0.0022901,0.0011031,-1.6017e-09,-1.5719e-08,0.00081713,1,1,49.14,1739.1,0,3000
1.6564e-14,1.6564e-14,0.098385,-81.427,-94.422,-5.8609,0.00026322,-0.0036988,0.23515,89.319,0,0,0,-175.75,7636.9,3999.8,-94.422,-81.846,0.51757,3.8966e-05,-2.6817e-06,1,-0.07134,-0.99745,1.0493e-07,0.99745,-0.07134,-3.9058e-05,-0.0030431,0.0019556,0.00065942,0.0007187,2.8191e-09,-7.7839e-08,0.003024,-0.00042811,-6.7974e-06,-4.0095e-09,-0.0030688,0.00065942,0.0019813,0.99745,-0.071338,1.0439e-05,-1.0339e-05,1.7789e-06,1,-0.071338,-0.99745,1.0368e-06,0.00035007,-0.00033453,-0.00044366,4.4208e-09,-6.212e-08,-9.8433e-05,-0.0033932,0.0022901,0.0011031,-1.6017e-09,-1.5719e-08,0.00081713,1,1,49.2,1739.2,0,3000
1.7804e-14,1.7804e-14,0.098385,-81.427,-94.422,-5.8609,0.00026322,-0.0036988,0.23515,89.319,0,0,0,-175.75,7636.9,3999.8,-94.422,-81.846,0.51757,3.8966e-05,-2.6817e-06,1,-0.07134,-0.99745,1.0493e-07,0.99745,-0.07134,-3.9058e-05,-0.0030431,0.0019556,0.00065942,0.0007187,2.8191e-09,-7.7839e-08,0.003024,-0.00042811,-6.7974e-06,-4.0095e-09,-0.0030688,0.00065942,0.0019813,0.99745,-0.071338,1.0439e-05,-1.0339e-05,1.7789e-06,1,-0.071338,-0.99745,1.0368e-06,0.00035007,-0.00033453,-0.00044366,4.4208e-09,-6.212e-08,-9.8433e-05,-0.0033932,0.0022901,0.0011031,-1.6017e-09,-1.5719e-08,0.00081713,1,1,49.26,1739.3,0,3000
1.9041e-14,1.9041e-14,0.098385,-81.427,-94.422,-5.8609,0.00026322,-0.0036988,0.23515,89.319,0,0,0,-175.75,7636.9,3999.8,-94.422,-81.846,0.51757,3.8966e-05,-2.6817e-06,1,-0.07134,-0.99745,1.0493e-07,0.99745,-0.07134,-3.9058e-05,-0.0030431,0.0019556,0.00065942,0.0007187,2.8191e-09,-7.7839e-08,0.003024,-0.00042811,-6.7974e-06,-4.0095e-09,-0.0030688,0.00065942,0.0019813,0.99745,-0.071338,1.0439e-05,-1.0339e-05,1.7789e-06,1,-0.071338,-0.99745,1.0368e-06,0.00035007,-0.00033453,-0.00044366,4.4208e-09,-6.212e-08,-9.8433e-05,-0.0033932,0.0022901,0.0011031,-1.6017e-09,-1.5719e-08,0.00081713,1,1,49.32,1739.3,0,3000
2.0282e-14,2.0282e-14,0.098385,-81.427,-94.422,-5.8609,0.00026322,-0.0036988,0.23515,89.319,0,0,0,-175.75,7636.9,3999.8,-94.422,-81.846,0.51757,3.8966e-05,-2.6817e-06,1,-0.07134,-0.99745,1.0493e-07,0.99745,-0.07134,-3.9058e-05,-0.0030431,0.0019556,0.00065942,0.0007187,2.8191e-09,-7.7839e-08,0.003024,-0.00042811,-6.7974e-06,-4.0095e-09,-0.0030688,0.00065942,0.0019813,0.99745,-0.071338,1.0439e-05,-1.0339e-05,1.7789e-06,1,-0.071338,-0.99745,1.0368e-06,0.00035007,-0.00033453,-0.00044366,4.4208e-09,-6.212e-08,-9.8433e-05,-0.0033932,0.0022901,0.0011031,-1.6017e-09,-1.5719e-08,0.00081713,1,1,49.38,1739.4,0,3000
2.1519e-14,2.1519e-14,0.098385,-81.427,-94.422,-5.8609,0.00026322,-0.0036988,0.23515,89.319,0,0,0,-175.75,7636.9,3999.8,-94.422,-81.846,0.51757,3.8966e-05,-2.6817e-06,1,-0.07134,-0.99745,1.0493e-07,0.99745,-0.07134,-3.9058e-05,-0.0030431,0.0019556,0.00065942,0.0007187,2.8191e-09,-7.7839e-08,0.003024,-0.00042811,-6.7974e-06,-4.0095e-09,-0.0030688,0.00065942,0.0019813,0.99745,-0.071338,1.0439e-05,-1.0339e-05,1.7789e-06,1,-0.071338,-0.99745,1.0368e-06,0.00035007,-0.00033453,-0.00044366,4.4208e-09,-6.212e-08,-9.8433e-05,-0.0033932,0.0022901,0.0011031,-1.6017e-09,-1.5719e-08,0.00081713,1,1,49.44,1739.4,0,3000
2.276e-14,2.276e-14,0.098385,-81.427,-94.422,-5.8609,0.00026322,-0.0036988,0.23515,89.319,0,0,0,-175.75,7636.9,3999.8,-94.422,-81.846,0.51757,3.8966e-05,-2.6817e-06,1,-0.07134,-0.99745,1.0493e-07,0.99745,-0.07134,-3.9058e-05,-0.0030431,0.0019556,0.00065942,0.0007187,2.8191e-09,-7.7839e-08,0.003024,-0.00042811,-6.7974e-06,-4.0095e-09,-0.0030688,0.00065942,0.0019813,0.99745,-0.071338,1.0439e-05,-1.0339e-05,1.7789e-06,1,-0.071338,-0.99745,1.0368e-06,0.00035007,-0.00033453,-0.00044366,4.4208e-09,-6.212e-08,-9.8433e-05,-0.0033932,0.0022901,0.0011031,-1.6017e-09,-1.5719e-08,0.00081713,1,1,49.5,1739.5,0,3000
2.4e-14,2.4e-14,0.098385,-81.427,-94.422,-5.8609,0.00026322,-0.0036988,0.23515,89.319,0,0,0,-175.75,7636.9,3999.8,-94.422,-81.846,0.51757,3.8966e-05,-2.6817e-06,1,-0.07134,-0.99745,1.0493e-07,0.99745,-0.07134,-3.9058e-05,-0.0030431,0.0019556,0.00065942,0.0007187,2.8191e-09,-7.7839e-08,0.003024,-0.00042811,-6.7974e-06,-4.0095e-09,-0.0030688,0.00065942,0.0019813,0.99745,-0.071338,1.0439e-05,-1.0339e-05,1.7789e-06,1,-0.071338,-0.99745,1.0368e-06,0.00035007,-0.00033453,-0.00044366,4.4208e-09,-6.212e-08,-9.8433e-05,-0.0033932,0.0022901,0.0011031,-1.6017e-09,-1.5719e-08,0.00081713,1,1,49.56,1739.6,0,3000
2.5237e-14,2.5237e-14,0.098385,-81.427,-94.422,-5.8609,0.00026322,-0.0036988,0.23515,89.319,0,0,0,-175.75,7636.9,3999.8,-94.422,-81.846,0.51757,3.8966e-05,-2.6817e-06,1,-0.07134,-0.99745,1.0493e-07,0.99745,-0.07134,-3.9058e-05,-0.0030431,0.0019556,0.00065942,0.0007187,2.8191e-09,-7.7839e-08,0.003024,-0.00042811,-6.7974e-06,-4.0095e-09,-0.0030688,0.00065942,0.0019813,0.99745,-0.071338,1.0439e-05,-1.0339e-05,1.7789e-06,1,-0.071338,-0.99745,1.0368e-06,0.00035007,-0.00033453,-0.00044366,4.4208e-09,-6.212e-08,-9.8433e-05,-0.0033932,0.0022901,0.0011031,-1.6017e-09,-1.5719e-08,0.00081713,1,1,49.62,1739.6,0,3000
2.6478e-14,2.6478e-14,0.098385,-81.427,-94.422,-5.8609,0.00026322,-0.0036988,0.23515,89.319,0,0,0,-175.75,7636.9,3999.8,-94.422,-81.846,0.51757,3.8966e-05,-2.6817e-06,1,-0.07134,-0.99745,1.0493e-07,0.99745,-0.07134,-3.9058e-05,-0.0030431,0.0019556,0.00065942,0.0007187,2.8191e-09,-7.7839e-08,0.003024,-0.00042811,-6.7974e-06,-4.0095e-09,-0.0030688,0.00065942,0.0019813,0.99745,-0.071338,1.0439e-05,-1.0339e-05,1.7789e-06,1,-0.071338,-0.99745,1.0368e-06,0.00035007,-0.00033453,-0.00044366,4.4208e-09,-6.212e-08,-9.8433e-05,-0.0033932,0.0022901,0.0011031,-1.6017e-09,-1.5719e-08,0.00081713,1,1,49.68,1739.7,0,3000
2.7715e-14,2.7715e-14,0.098385,-81.427,-94.422,-5.8609,0.00026322,-0.0036988,0.23515,89.319,0,0,0,-175.75,7636.9,3999.8,-94.422,-81.846,0.51757,3.8966e-05,-2.6817e-06,1,-0.07134,-0.99745,1.0493e-07,0.99745,-0.07134,-3.9058e-05,-0.0030431,0.0019556,0.00065942,0.0007187,2.8191e-09,-7.7839e-08,0.003024,-0.00042811,-6.7974e-06,-4.0095e-09,-0.0030688,0.00065942,0.0019813,0.99745,-0.071338,1.0439e-05,-1.0339e-05,1.7789e-06,1,-0.071338,-0.99745,1.0368e-06,0.00035007,-0.00033453,-0.00044366,4.4208e-09,-6.212e-08,-9.8433e-05,-0.0033932,0.0022901,0.0011031,-1.6017e-09,-1.5719e-08,0.00081713,1,1,49.74,1739.7,0,3000
2.8956e-14,2.8956e-14,0.098385,-81.427,-94.422,-5.8609,0.00026322,-0.0036988,0.23515,89.319,0,0,0,-175.75,7636.9,3999.8,-94.422,-81.846,0.51757,3.8966e-05,-2.6817e-06,1,-0.07134,-0.99745,1.0493e-07,0.99745,-0.07134,-3.9058e-05,-0.0030431,0.0019556,0.00065942,0.0007187,2.8191e-09,-7.7839e-08,0.003024,-0.00042811,-6.7974e-06,-4.0095e-09,-0.0030688,0.00065942,0.0019813,0.99745,-0.071338,1.0439e-05,-1.0339e-05,1.7789e-06,1,-0.071338,-0.99745,1.0368e-06,0.00035007,-0.00033453,-0.00044366,4.4208e-09,-6.212e-08,-9.8433e-05,-0.0033932,0.0022901,0.0011031,-1.6017e-09,-1.5719e-08,0.00081713,1,1,49.8,1739.8,0,3000
3.0193e-14,3.0193e-14,0.098385,-81.427,-94.422,-5.8609,0.00026322,-0.0036988,0.23515,89.319,0,0,0,-175.75,7636.9,3999.8,-94.422,-81.846,0.51757,3.8966e-05,-2.6817e-06,1,-0.07134,-0.99745,1.0493e-07,0.99745,-0.07134,-3.9058e-05,-0.0030431,0.0019556,0.00065942,0.0007187,2.8191e-09,-7.7839e-08,0.003024,-0.00042811,-6.7974e-06,-4.0095e-09,-0.0030688,0.00065942,0.0019813,0.99745,-0.071338,1.0439e-05,-1.0339e-05,1.7789e-06,1,-0.071338,-0.99745,1.0368e-06,0.00035007,-0.00033453,-0.00044366,4.4208e-09,-6.212e-08,-9.8433e-05,-0.0033932,0.0022901,0.0011031,-1.6017e-09,-1.5719e-08,0.00081713,1,1,49.86,1739.9,0,3000
3.1434e-14,3.1434e-14,0.098385,-81.427,-94.422,-5.8609,0.00026322,-0.0036988,0.23515,89.319,0,0,0,-175.75,7636.9,3999.8,-94.422,-81.846,0.51757,3.8966e-05,-2.6817e-06,1,-0.07134,-0.99745,1.0493e-07,0.99745,-0.07134,-3.9058e-05,-0.0030431,0.0019556,0.00065942,0.0007187,2.8191e-09,-7.7839e-08,0.003024,-0.00042811,-6.7974e-06,-4.0095e-09,-0.0030688,0.00065942,0.0019813,0.99745,-0.071338,1.0439e-05,-1.0339e-05,1.7789e-06,1,-0.071338,-0.99745,1.0368e-06,0.00035007,-0.00033453,-0.00044366,4.4208e-09,-6.212e-08,-9.8433e-05,-0.0033932,0.0022901,0.0011031,-1.6017e-09,-1.5719e-08,0.00081713,1,1,49.92,1739.9,0,3000
3.2671e-14,3.2671e-14,0.098385,-81.427,-94.422,-5.8609,0.00026322,-0.0036988,0.23515,89.319,0,0,0,-175.75,7636.9,3999.8,-94.422,-81.846,0.51757,3.8966e-05,-2.6817e-06,1,-0.07134,-0.99745,1.0493e-07,0.99745,-0.07134,-3.9058e-05,-0.0030431,0.0019556,0.00065942,0.0007187,2.8191e-09,-7.7839e-08,0.003024,-0.00042811,-6.7974e-06,-4.0095e-09,-0.0030688,0.00065942,0.0019813,0.99745,-0.071338,1.0439e-05,-1.0339e-05,1.7789e-06,1,-0.071338,-0.99745,1.0368e-06,0.00035007,-0.00033453,-0.00044366,4.4208e-09,-6.212e-08,-9.8433e-05,-0.0033932,0.0022901,0.0011031,-1.6017e-09,-1.5719e-08,0.00081713,1,1,49.98,1740,0,3000
3.1098e-14,3.1098e-14,0.010988,-88.007,-100.95,-6.3276,0.00026132,-0.003672,0.24913,95.78,0,0,0,-188.94,8841.9,4139.4,-100.95,-88.459,0.46355,3.6216e-05,-2.485e-06,1,-0.07134,-0.99745,1.05e-07,0.99745,-0.07134,-3.6301e-05,-0.0030721,0.0019525,0.00065934,0.00072243,3.7716e-09,-9.3351e-08,0.0030414,-0.00046024,-6.8671e-06,-4.0411e-09,-0.003098,0.00065934,0.0019784,0.99745,-0.071338,1.2427e-05,-1.2317e-05,1.9821e-06,1,-0.071338,-0.99745,1.0984e-06,0.00037555,-0.00036357,-0.00047223,4.3888e-09,-6.1671e-08,-0.00010627,-0.0034477,0.0023161,0.0011316,-6.1724e-10,-3.168e-08,0.0008287,1,1,50.04,1740,0,3000
2.8123e-14,2.8123e-14,0.010988,-88.007,-100.95,-6.3276,0.00026132,-0.003672,0.24913,95.78,0,0,0,-188.94,8841.9,4139.4,-100.95,-88.459,0.46355,3.6216e-05,-2.485e-06,1,-0.07134,-0.99745,1.05e-07,0.99745,-0.07134,-3.6301e-05,-0.0030721,0.0019525,0.00065934,0.00072243,3.7716e-09,-9.3351e-08,0.0030414,-0.00046024,-6.8671e-06,-4.0411e-09,-0.003098,0.00065934,0.0019784,0.99745,-0.071338,1.2427e-05,-1.2317e-05,1.9821e-06,1,-0.071338,-0.99745,1.0984e-06,0.00037555,-0.00036357,-0.00047223,4.3888e-09,-6.1671e-08,-0.00010627,-0.0034477,0.0023161,0.0011316,-6.1724e-10,-3.168e-08,0.0008287,1,1,50.1,1740.1,0,3000
2.5143e-14,2.5143e-14,0.010988,-88.007,-100.95,-6.3276,0.00026132,-0.003672,0.24913,95.78,0,0,0,-188.94,8841.9,4139.4,-100.95,-88.459,0.46355,3.6216e-05,-2.485e-06,1,-0.07134,-0.99745,1.05e-07,0.99745,-0.07134,-3.6301e-05,-0.0030721,0.0019525,0.00065934,0.00072243,3.7716e-09,-9.3351e-08,0.0030414,-0.00046024,-6.8671e-06,-4.0411e-09,-0.003098,0.00065934,0.0019784,0.99745,-0.071338,1.2427e-05,-1.2317e-05,1.9821e-06,1,-0.071338,-0.99745,1.0984e-06,0.00037555,-0.00036357,-0.00047223,4.3888e-09,-6.1671e-08,-0.00010627,-0.0034477,0.0023161,0.0011316,-6.1724e-10,-3.168e-08,0.0008287,1,1,50.16,1740.2,0,3000
2.2168e-14,2.2168e-14,0.010988,-88.007,-100.95,-6.3276,0.00026132,-0.003672,0.24913,95.78,0,0,0,-188.94,8841.9,4139.4,-100.95,-88.459,0.46355,3.6216e-05,-2.485e-06,1,-0.07134,-0.99745,1.05e-07,0.99745,-0.07134,-3.6301e-05,-0.0030721,0.0019525,0.00065934,0.00072243,3.7716e-09,-9.3351e-08,0.0030414,-0.00046024,-6.8671e-06,-4.0411e-09,-0.003098,0.00065934,0.0019784,0.99745,-0.071338,1.2427e-05,-1.2317e-05,1.9821e-06,1,-0.071338,-0.99745,1.0984e-06,0.00037555,-0.00036357,-0.00047223,4.3888e-09,-6.1671e-08,-0.00010627,-0.0034477,0.0023161,0.0011316,-6.1724e-10,-3.168e-08,0.0008287,1,1,50.22,1740.2,0,3000
1.9188e-14,1.9188e-14,0.010988,-88.007,-100.95,-6.3276,0.00026132,-0.003672,0.24913,95.78,0,0,0,-188.94,8841.9,4139.4,-100.95,-88.459,0.46355,3.6216e-05,-2.485e-06,1,-0.07134,-0.99745,1.05e-07,0.99745,-0.07134,-3.6301e-05,-0.0030721,0.0019525,0.00065934,0.00072243,3.7716e-09,-9.3351e-08,0.0030414,-0.00046024,-6.8671e-06,-4.0411e-09,-0.003098,0.00065934,0.0019784,0.99745,-0.071338,1.2427e-05,-1.2317e-05,1.9821e-06,1,-0.071338,-0.99745,1.0984e-06,0.00037555,-0.00036357,-0.00047223,4.3888e-09,-6.1671e-08,-0.00010627,-0.0034477,0.0023161,0.0011316,-6.1724e-10,-3.168e-08,0.0008287,1,1,50.28,1740.3,0,3000
1.6213e-14,1.6213e-14,0.010988,-88.007,-100.95,-6.3276,0.00026132,-0.003672,0.24913,95.78,0,0,0,-188.94,8841.9,4139.4,-100.95,-88.459,0.46355,3.6216e-05,-2.485e-06,1,-0.07134,-0.99745,1.05e-07,0.99745,-0.07134,-3.6301e-05,-0.0030721,0.0019525,0.00065934,0.00072243,3.7716e-09,-9.3351e-08,0.0030414,-0.00046024,-6.8671e-06,-4.0411e-09,-0.003098,0.00065934,0.0019784,0.99745,-0.071338,1.2427e-05,-1.2317e-05,1.9821e-06,1,-0.071338,-0.99745,1.0984e-06,0.00037555,-0.00036357,-0.00047223,4.3888e-09,-6.1671e-08,-0.00010627,-0.0034477,0.0023161,0.0011316,-6.1724e-10,-3.168e-08,0.0008287,1,1,50.34,1740.3,0,3000
1.3233e-14,1.3233e-14,0.010988,-88.007,-100.95,-6.3276,0.00026132,-0.003672,0.24913,95.78,0,0,0,-188.94,8841.9,4139.4,-100.95,-88.459,0.46355,3.6216e-05,-2.485e-06,1,-0.07134,-0.99745,1.05e-07,0.99745,-0.07134,-3.6301e-05,-0.0030721,0.0019525,0.00065934,0.00072243,3.7716e-09,-9.3351e-08,0.0030414,-0.00046024,-6.8671e-06,-4.0411e-09,-0.003098,0.00065934,0.0019784,0.99745,-0.071338,1.2427e-05,-1.2317e-05,1.9821e-06,1,-0.071338,-0.99745,1.0984e-06,0.00037555,-0.00036357,-0.00047223,4.3888e-09,-6.1671e-08,-0.00010627,-0.0034477,0.0023161,0.0011316,-6.1724e-10,-3.168e-08,0.0008287,1,1,50.4,1740.4,0,3000
1.0258e-14,1.0258e-14,0.010988,-88.007,-100.95,-6.3276,0.00026132,-0.003672,0.24913,95.78,0,0,0,-188.94,8841.9,4139.4,-100.95,-88.459,0.46355,3.6216e-05,-2.485e-06,1,-0.07134,-0.99745,1.05e-07,0.99745,-0.07134,-3.6301e-05,-0.0030721,0.0019525,0.00065934,0.00072243,3.7716e-09,-9.3351e-08,0.0030414,-0.00046024,-6.8671e-06,-4.0411e-09,-0.003098,0.00065934,0.0019784,0.99745,-0.071338,1.2427e-05,-1.2317e-05,1.9821e-06,1,-0.071338,-0.99745,1.0984e-06,0.00037555,-0.00036357,-0.00047223,4.3888e-09,-6.1671e-08,-0.00010627,-0.0034477,0.0023161,0.0011316,-6.1724e-10,-3.168e-08,0.0008287,1,1,50.46,1740.5,0,3000
7.2777e-15,7.2777e-15,0.010988,-88.007,-100.95,-6.3276,0.00026132,-0.003672,0.24913,95.78,0,0,0,-188.94,8841.9,4139.4,-100.95,-88.459,0.46355,3.6216e-05,-2.485e-06,1,-0.07134,-0.99745,1.05e-07,0.99745,-0.07134,-3.6301e-05,-0.0030721,0.0019525,0.00065934,0.00072243,3.7716e-09,-9.3351e-08,0.0030414,-0.00046024,-6.8671e-06,-4.0411e-09,-0.003098,0.00065934,0.0019784,0.99745,-0.071338,1.2427e-05,-1.2317e-05,1.9821e-06,1,-0.071338,-0.99745,1.0984e-06,0.00037555,-0.00036357,-0.00047223,4.3888e-09,-6.1671e-08,-0.00010627,-0.0034477,0.0023161,0.0011316,-6.1724e-10,-3.168e-08,0.0008287,1,1,50.52,1740.5,0,3000
4.3032e-15,4.3032e-15,0.010988,-88.007,-100.95,-6.3276,0.00026132,-0.003672,0.24913,95.78,0,0,0,-188.94,8841.9,4139.4,-100.95,-88.459,0.46355,3.6216e-05,-2.485e-06,1,-0.07134,-0.99745,1.05e-07,0.99745,-0.07134,-3.6301e-05,-0.0030721,0.0019525,0.00065934,0.00072243,3.7716e-09,-9.3351e-08,0.0030414,-0.00046024,-6.8671e-06,-4.0411e-09,-0.003098,0.00065934,0.0019784,0.99745,-0.071338,1.2427e-05,-1.2317e-05,1.9821e-06,1,-0.071338,-0.99745,1.0984e-06,0.00037555,-0.00036357,-0.00047223,4.3888e-09,-6.1671e-08,-0.00010627,-0.0034477,0.0023161,0.0011316,-6.1724e-10,-3.168e-08,0.0008287,1,1,50.58,1740.6,0,3000
1.3227e-15,1.3227e-15,0.010988,-88.007,-100.95,-6.3276,0.00026132,-0.003672,0.24913,95.78,0,0,0,-188.94,8841.9,4139.4,-100.95,-88.459,0.46355,3.6216e-05,-2.485e-06,1,-0.07134,-0.99745,1.05e-07,0.99745,-0.07134,-3.6301e-05,-0.0030721,0.0019525,0.00065934,0.00072243,3.7716e-09,-9.3351e-08,0.0030414,-0.00046024,-6.8671e-06,-4.0411e-09,-0.003098,0.00065934,0.0019784,0.99745,-0.071338,1.2427e-05,-1.2317e-05,1.9821e-06,1,-0.071338,-0.99745,1.0984e-06,0.00037555,-0.00036357,-0.00047223,4.3888e-09,-6.1671e-08,-0.00010627,-0.0034477,0.0023161,0.0011316,-6.1724e-10,-3.168e-08,0.0008287,1,1,50.64,1740.6,0,3000
-1.6518e-15,-1.6518e-15,0.010988,-88.007,-100.95,-6.3276,0.00026132,-0.003672,0.24913,95.78,0,0,0,-188.94,8841.9,4139.4,-100.95,-88.459,0.46355,3.6216e-05,-2.485e-06,1,-0.07134,-0.99745,1.05e-07,0.99745,-0.07134,-3.6301e-05,-0.0030721,0.0019525,0.00065934,0.00072243,3.7716e-09,-9.3351e-08,0.0030414,-0.00046024,-6.8671e-06,-4.0411e-09,-0.003098,0.00065934,0.0019784,0.99745,-0.071338,1.2427e-05,-1.2317e-05,1.9821e-06,1,-0.071338,-0.99745,1.0984e-06,0.00037555,-0.00036357,-0.00047223,4.3888e-09,-6.1671e-08,-0.00010627,-0.0034477,0.0023161,0.0011316,-6.1724e-10,-3.168e-08,0.0008287,1,1,50.7,1740.7,0,3000
-4.6323e-15,-4.6323e-15,0.010988,-88.007,-100.95,-6.3276,0.00026132,-0.003672,0.24913,95.78,0,0,0,-188.94,8841.9,4139.4,-100.95,-88.459,0.46355,3.6216e-05,-2.485e-06,1,-0.07134,-0.99745,1.05e-07,0.99745,-0.07134,-3.6301e-05,-0.0030721,0.0019525,0.00065934,0.00072243,3.7716e-09,-9.3351e-08,0.0030414,-0.00046024,-6.8671e-06,-4.0411e-09,-0.003098,0.00065934,0.0019784,0.99745,-0.071338,1.2427e-05,-1.2317e-05,1.9821e-06,1,-0.071338,-0.99745,1.0984e-06,0.00037555,-0.00036357,-0.00047223,4.3888e-09,-6.1671e-08,-0.00010627,-0.0034477,0.0023161,0.0011316,-6.1724e-10,-3.168e-08,0.0008287,1,1,50.76,1740.8,0,3000
-7.6068e-15,-7.6068e-15,0.010988,-88.007,-100.95,-6.3276,0.00026132,-0.003672,0.24913,95.78,0,0,0,-188.94,8841.9,4139.4,-100.95,-88.459,0.46355,3.6216e-05,-2.485e-06,1,-0.07134,-0.99745,1.05e-07,0.99745,-0.07134,-3.6301e-05,-0.0030721,0.0019525,0.00065934,0.00072243,3.7716e-09,-9.3351e-08,0.0030414,-0.00046024,-6.8671e-06,-4.0411e-09,-0.003098,0.00065934,0.0019784,0.99745,-0.071338,1.2427e-05,-1.2317e-05,1.9821e-06,1,-0.071338,-0.99745,1.0984e-06,0.00037555,-0.00036357,-0.00047223,4.3888e-09,-6.1671e-08,-0.00010627,-0.0034477,0.0023161,0.0011316,-6.1724e-10,-3.168e-08,0.0008287,1,1,50.82,1740.8,0,3000
-1.0587e-14,-1.0587e-14,0.010988,-88.007,-100.95,-6.3276,0.00026132,-0.003672,0.24913,95.78,0,0,0,-188.94,8841.9,4139.4,-100.95,-88.459,0.46355,3.6216e-05,-2.485e-06,1,-0.07134,-0.99745,1.05e-07,0.99745,-0.07134,-3.6301e-05,-0.0030721,0.0019525,0.00065934,0.00072243,3.7716e-09,-9.3351e-08,0.0030414,-0.00046024,-6.8671e-06,-4.0411e-09,-0.003098,0.00065934,0.0019784,0.99745,-0.071338,1.2427e-05,-1.2317e-05,1.9821e-06,1,-0.071338,-0.99745,1.0984e-06,0.00037555,-0.00036357,-0.00047223,4.3888e-09,-6.1671e-08,-0.00010627,-0.0034477,0.0023161,0.0011316,-6.1724e-10,-3.168e-08,0.0008287,1,1,50.88,1740.9,0,3000
-1.3562e-14,-1.3562e-14,0.010988,-88.007,-100.95,-6.3276,0.00026132,-0.003672,0.24913,95.78,0,0,0,-188.94,8841.9,4139.4,-100.95,-88.459,0.46355,3.6216e-05,-2.485e-06,1,-0.07134,-0.99745,1.05e-07,0.99745,-0.07134,-3.6301e-05,-0.0030721,0.0019525,0.00065934,0.00072243,3.7716e-09,-9.3351e-08,0.0030414,-0.00046024,-6.8671e-06,-4.0411e-09,-0.003098,0.00065934,0.0019784,0.99745,-0.071338,1.2427e-05,-1.2317e-05,1.9821e-06,1,-0.071338,-0.99745,1.0984e-06,0.00037555,-0.00036357,-0.00047223,4.3888e-09,-6.1671e-08,-0.00010627,-0.0034477,0.0023161,0.0011316,-6.1724e-10,-3.168e-08,0.0008287,1,1,50.94,1740.9,0,3000
-1.6542e-14,-1.6542e-14,0.010988,-88.007,-100.95,-6.3276,0.00026132,-0.003672,0.24913,95.78,0,0,0,-188.94,8841.9,4139.4,-100.95,-88.459,0.46355,3.6216e-05,-2.485e-06,1,-0.07134,-0.99745,1.05e-07,0.99745,-0.07134,-3.6301e-05,-0.0030721,0.0019525,0.00065934,0.00072243,3.7716e-09,-9.3351e-08,0.0030414,-0.00046024,-6.8671e-06,-4.0411e-09,-0.003098,0.00065934,0.0019784,0.99745,-0.071338,1.2427e-05,-1.2317e-05,1.9821e-06,1,-0.071338,-0.99745,1.0984e-06,0.00037555,-0.00036357,-0.00047223,4.3888e-09,-6.1671e-08,-0.00010627,-0.0034477,0.0023161,0.0011316,-6.1724e-10,-3.168e-08,0.0008287,1,1,51,1741,0,3000
-1.5439e-14,-1.5439e-14,-0.080226,-94.442,-107.06,-6.7836,0.00025992,-0.0036573,0.26774,101.94,0,0,0,-201.59,10081,4115.6,-107.06,-94.927,0.40495,3.404e-05,-2.2983e-06,1,-0.07134,-0.99745,1.3599e-07,0.99745,-0.07134,-3.4117e-05,-0.0030998,0.0019495,0.00065926,0.00072596,5.0889e-09,-1.124e-07,0.003058,-0.00049104,-6.9331e-06,-4.0707e-09,-0.0031257,0.00065926,0.0019754,0.99745,-0.071338,1.4858e-05,-1.4741e-05,2.1749e-06,1,-0.071338,-0.99745,1.1178e-06,0.00039991,-0.00039248,-0.00049847,4.3654e-09,-6.1424e-08,-0.00011393,-0.0034997,0.002342,0.0011577,7.2356e-10,-5.0976e-08,0.00083989,1,1,51.06,1741.1,0,3000
-1.4338e-14,-1.4338e-14,-0.080226,-94.442,-107.06,-6.7836,0.00025992,-0.0036573,0.26774,101.94,0,0,0,-201.59,10081,4115.6,-107.06,-94.927,0.40495,3.404e-05,-2.2983e-06,1,-0.07134,-0.99745,1.3599e-07,0.99745,-0.07134,-3.4117e-05,-0.0030998,0.0019495,0.00065926,0.00072596,5.0889e-09,-1.124e-07,0.003058,-0.00049104,-6.9331e-06,-4.0707e-09,-0.0031257,0.00065926,0.0019754,0.99745,-0.071338,1.4858e-05,-1.4741e-05,2.1749e-06,1,-0.071338,-0.99745,1.1178e-06,0.00039991,-0.00039248,-0.00049847,4.3654e-09,-6.1424e-08,-0.00011393,-0.0034997,0.002342,0.0011577,7.2356e-10,-5.0976e-08,0.00083989,1,1,51.12,1741.1,0,3000
-1.3234e-14,-1.3234e-14,-0.080226,-94.442,-107.06,-6.7836,0.00025992,-0.0036573,0.26774,101.94,0,0,0,-201.59,10081,4115.6,-107.06,-94.927,0.40495,3.404e-05,-2.2983e-06,1,-0.07134,-0.99745,1.3599e-07,0.99745,-0.07134,-3.4117e-05,-0.0030998,0.0019495,0.00065926,0.00072596,5.0889e-09,-1.124e-07,0.003058,-0.00049104,-6.9331e-06,-4.0707e-09,-0.0031257,0.00065926,0.0019754,0.99745,-0.071338,1.4858e-05,-1.4741e-05,2.1749e-06,1,-0.071338,-0.99745,1.1178e-06,0.00039991,-0.00039248,-0.00049847,4.3654e-09,-6.1424e-08,-0.00011393,-0.0034997,0.002342,0.0011577,7.2356e-10,-5.0976e-08,0.00083989,1,1,51.18,1741.2,0,3000
-1.2133e-14,-1.2133e-14,-0.080226,-94.442,-107.06,-6.7836,0.00025992,-0.0036573,0.26774,101.94,0,0,0,-201.59,10081,4115.6,-107.06,-94.927,0.40495,3.404e-05,-2.2983e-06,1,-0.07134,-0.99745,1.3599e-07,0.99745,-0.07134,-3.4117e-05,-0.0030998,0.0019495,0.00065926,0.00072596,5.0889e-09,-1.124e-07,0.003058,-0.00049104,-6.9331e-06,-4.0707e-09,-0.0031257,0.00065926,0.0019754,0.99745,-0.071338,1.4858e-05,-1.4741e-05,2.1749e-06,1,-0.071338,-0.99745,1.1178e-06,0.00039991,-0.00039248,-0.00049847,4.3654e-09,-6.1424e-08,-0.00011393,-0.0034997,0.002342,0.0011577,7.2356e-10,-5.0976e-08,0.00083989,1,1,51.24,1741.2,0,3000
-1.1029e-14,-1.1029e-14,-0.080226,-94.442,-107.06,-6.7836,0.00025992,-0.0036573,0.26774,101.94,0,0,0,-201.59,10081,4115.6,-107.06,-94.927,0.40495,3.404e-05,-2.2983e-06,1,-0.07134,-0.99745,1.3599e-07,0.99745,-0.07134,-3.4117e-05,-0.0030998,0.0019495,0.00065926,0.00072596,5.0889e-09,-1.124e-07,0.003058,-0.00049104,-6.9331e-06,-4.0707e-09,-0.0031257,0.00065926,0.0019754,0.99745,-0.071338,1.4858e-05,-1.4741e-05,2.1749e-06,1,-0.071338,-0.99745,1.1178e-06,0.00039991,-0.00039248,-0.00049847,4.3654e-09,-6.1424e-08,-0.00011393,-0.0034997,0.002342,0.0011577,7.2356e-10,-5.0976e-08,0.00083989,1,1,51.3,1741.3,0,3000
-9.9279e-15,-9.9279e-15,-0.080226,-94.442,-107.06,-6.7836,0.00025992,-0.0036573,0.26774,101.94,0,0,0,-201.59,10081,4115.6,-107.06,-94.927,0.40495,3.404e-05,-2.2983e-06,1,-0.07134,-0.99745,1.3599e-07,0.99745,-0.07134,-3.4117e-05,-0.0030998,0.0019495,0.00065926,0.00072596,5.0889e-09,-1.124e-07,0.003058,-0.00049104,-6.9331e-06,-4.0707e-09,-0.0031257,0.00065926,0.0019754,0.99745,-0.071338,1.4858e-05,-1.4741e-05,2.1749e-06,1,-0.071338,-0.99745,1.1178e-06,0.00039991,-0.00039248,-0.00049847,4.3654e-09,-6.1424e-08,-0.00011393,-0.0034997,0.002342,0.0011577,7.2356e-10,-5.0976e-08,0.00083989,1,1,51.36,1741.4,0,3000
-8.8244e-15,-8.8244e-15,-0.080226,-94.442,-107.06,-6.7836,0.00025992,-0.0036573,0.26774,101.94,0,0,0,-201.59,10081,4115.6,-107.06,-94.927,0.40495,3.404e-05,-2.2983e-06,1,-0.07134,-0.99745,1.3599e-07,0.99745,-0.07134,-3.4117e-05,-0.0030998,0.0019495,0.00065926,0.00072596,5.0889e-09,-1.124e-07,0.003058,-0.00049104,-6.9331e-06,-4.0707e-09,-0.0031257,0.00065926,0.0019754,0.99745,-0.071338,1.4858e-05,-1.4741e-05,2.1749e-06,1,-0.071338,-0.99745,1.1178e-06,0.00039991,-0.00039248,-0.00049847,4.3654e-09,-6.1424e-08,-0.00011393,-0.0034997,0.002342,0.0011577,7.2356e-10,-5.0976e-08,0.00083989,1,1,51.42,1741.4,0,3000
-7.7231e-15,-7.7231e-15,-0.080226,-94.442,-107.06,-6.7836,0.00025992,-0.0036573,0.26774,101.94,0,0,0,-201.59,10081,4115.6,-107.06,-94.927,0.40495,3.404e-05,-2.2983e-06,1,-0.07134,-0.99745,1.3599e-07,0.99745,-0.07134,-3.4117e-05,-0.0030998,0.0019495,0.00065926,0.00072596,5.0889e-09,-1.124e-07,0.003058,-0.00049104,-6.9331e-06,-4.0707e-09,-0.0031257,0.00065926,0.0019754,0.99745,-0.071338,1.4858e-05,-1.4741e-05,2.1749e-06,1,-0.071338,-0.99745,1.1178e-06,0.00039991,-0.00039248,-0.00049847,4.3654e-09,-6.1424e-08,-0.00011393,-0.0034997,0.002342,0.0011577,7.2356e-10,-5.0976e-08,0.00083989,1,1,51.48,1741.5,0,3000
-6.6195e-15,-6.6195e-15,-0.080226,-94.442,-107.06,-6.7836,0.00025992,-0.0036573,0.26774,101.94,0,0,0,-201.59,10081,4115.6,-107.06,-94.927,0.40495,3.404e-05,-2.2983e-06,1,-0.07134,-0.99745,1.3599e-07,0.99745,-0.07134,-3.4117e-05,-0.0030998,0.0019495,0.00065926,0.00072596,5.0889e-09,-1.124e-07,0.003058,-0.00049104,-6.9331e-06,-4.0707e-09,-0.0031257,0.00065926,0.0019754,0.99745,-0.071338,1.4858e-05,-1.4741e-05,2.1749e-06,1,-0.071338,-0.99745,1.1178e-06,0.00039991,-0.00039248,-0.00049847,4.3654e-09,-6.1424e-08,-0.00011393,-0.0034997,0.002342,0.0011577,7.2356e-10,-5.0976e-08,0.00083989,1,1,51.54,1741.5,0,3000
-5.5183e-15,-5.5183e-15,-0.080226,-94.442,-107.06,-6.7836,0.00025992,-0.0036573,0.26774,101.94,0,0,0,-201.59,10081,4115.6,-107.06,-94.927,0.40495,3.404e-05,-2.2983e-06,1,-0.07134,-0.99745,1.3599e-07,0.99745,-0.07134,-3.4117e-05,-0.0030998,0.0019495,0.00065926,0.00072596,5.0889e-09,-1.124e-07,0.003058,-0.00049104,-6.9331e-06,-4.0707e-09,-0.0031257,0.00065926,0.0019754,0.99745,-0.071338,1.4858e-05,-1.4741e-05,2.1749e-06,1,-0.071338,-0.99745,1.1178e-06,0.00039991,-0.00039248,-0.00049847,4.3654e-09,-6.1424e-08,-0.00011393,-0.0034997,0.002342,0.0011577,7.2356e-10,-5.0976e-08,0.00083989,1,1,51.6,1741.6,0,3000
-4.4147e-15,-4.4147e-15,-0.080226,-94.442,-107.06,-6.7836,0.00025992,-0.0036573,0.26774,101.94,0,0,0,-201.59,10081,4115.6,-107.06,-94.927,0.40495,3.404e-05,-2.2983e-06,1,-0.07134,-0.99745,1.3599e-07,0.99745,-0.07134,-3.4117e-05,-0.0030998,0.0019495,0.00065926,0.00072596,5.0889e-09,-1.124e-07,0.003058,-0.00049104,-6.9331e-06,-4.0707e-09,-0.0031257,0.00065926,0.0019754,0.99745,-0.071338,1.4858e-05,-1.4741e-05,2.1749e-06,1,-0.071338,-0.99745,1.1178e-06,0.00039991,-0.00039248,-0.00049847,4.3654e-09,-6.1424e-08,-0.00011393,-0.0034997,0.002342,0.0011577,7.2356e-10,-5.0976e-08,0.00083989,1,1,51.66,1741.7,0,3000
-3.3134e-15,-3.3134e-15,-0.080226,-94.442,-107.06,-6.7836,0.00025992,-0.0036573,0.26774,101.94,0,0,0,-201.59,10081,4115.6,-107.06,-94.927,0.40495,3.404e-05,-2.2983e-06,1,-0.07134,-0.99745,1.3599e-07,0.99745,-0.07134,-3.4117e-05,-0.0030998,0.0019495,0.00065926,0.00072596,5.0889e-09,-1.124e-07,0.003058,-0.00049104,-6.9331e-06,-4.0707e-09,-0.0031257,0.00065926,0.0019754,0.99745,-0.071338,1.4858e-05,-1.4741e-05,2.1749e-06,1,-0.071338,-0.99745,1.1178e-06,0.00039991,-0.00039248,-0.00049847,4.3654e-09,-6.1424e-08,-0.00011393,-0.0034997,0.002342,0.0011577,7.2356e-10,-5.0976e-08,0.00083989,1,1,51.72,1741.7,0,3000
-2.2099e-15,-2.2099e-15,-0.080226,-94.442,-107.06,-6.7836,0.00025992,-0.0036573,0.26774,101.94,0,0,0,-201.59,10081,4115.6,-107.06,-94.927,0.40495,3.404e-05,-2.2983e-06,1,-0.07134,-0.99745,1.3599e-07,0.99745,-0.07134,-3.4117e-05,-0.0030998,0.0019495,0.00065926,0.00072596,5.0889e-09,-1.124e-07,0.003058,-0.00049104,-6.9331e-06,-4.0707e-09,-0.0031257,0.00065926,0.0019754,0.99745,-0.071338,1.4858e-05,-1.4741e-05,2.1749e-06,1,-0.071338,-0.99745,1.1178e-06,0.00039991,-0.00039248,-0.00049847,4.3654e-09,-6.1424e-08,-0.00011393,-0.0034997,0.002342,0.0011577,7.2356e-10,-5.0976e-08,0.00083989,1,1,51.78,1741.8,0,3000
-1.1086e-15,-1.1086e-15,-0.080226,-94.442,-107.06,-6.7836,0.00025992,-0.0036573,0.26774,101.94,0,0,0,-201.59,10081,4115.6,-107.06,-94.927,0.40495,3.404e-05,-2.2983e-06,1,-0.07134,-0.99745,1.3599e-07,0.99745,-0.07134,-3.4117e-05,-0.0030998,0.0019495,0.00065926,0.00072596,5.0889e-09,-1.124e-07,0.003058,-0.00049104,-6.9331e-06,-4.0707e-09,-0.0031257,0.00065926,0.0019754,0.99745,-0.071338,1.4858e-05,-1.4741e-05,2.1749e-06,1,-0.071338,-0.99745,1.1178e-06,0.00039991,-0.00039248,-0.00049847,4.3654e-09,-6.1424e-08,-0.00011393,-0.0034997,0.002342,0.0011577,7.2356e-10,-5.0976e-08,0.00083989,1,1,51.84,1741.8,0,3000
-5.1025e-18,-5.1025e-18,-0.080226,-94.442,-107.06,-6.7836,0.00025992,-0.0036573,0.26774,101.94,0,0,0,-201.59,10081,4115.6,-107.06,-94.927,0.40495,3.404e-05,-2.2983e-06,1,-0.07134,-0.99745,1.3599e-07,0.99745,-0.07134,-3.4117e-05,-0.0030998,0.0019495,0.00065926,0.00072596,5.0889e-09,-1.124e-07,0.003058,-0.00049104,-6.9331e-06,-4.0707e-09,-0.0031257,0.00065926,0.0019754,0.99745,-0.071338,1.4858e-05,-1.4741e-05,2.1749e-06,1,-0.071338,-0.99745,1.1178e-06,0.00039991,-0.00039248,-0.00049847,4.3654e-09,-6.1424e-08,-0.00011393,-0.0034997,0.002342,0.0011577,7.2356e-10,-5.0976e-08,0.00083989,1,1,51.9,1741.9,0,3000
1.0962e-15,1.0962e-15,-0.080226,-94.442,-107.06,-6.7836,0.00025992,-0.0036573,0.26774,101.94,0,0,0,-201.59,10081,4115.6,-107.06,-94.927,0.40495,3.404e-05,-2.2983e-06,1,-0.07134,-0.99745,1.3599e-07,0.99745,-0.07134,-3.4117e-05,-0.0030998,0.0019495,0.00065926,0.00072596,5.0889e-09,-1.124e-07,0.003058,-0.00049104,-6.9331e-06,-4.0707e-09,-0.0031257,0.00065926,0.0019754,0.99745,-0.071338,1.4858e-05,-1.4741e-05,2.1749e-06,1,-0.071338,-0.99745,1.1178e-06,0.00039991,-0.00039248,-0.00049847,4.3654e-09,-6.1424e-08,-0.00011393,-0.0034997,0.002342,0.0011577,7.2356e-10,-5.0976e-08,0.00083989,1,1,51.96,1742,0,3000
1.9097e-15,1.9097e-15,-0.15103,-97.012,-105.24,-6.9633,0.00016796,-0.0024833,0.42544,101.94,0,0,0,-202.4,10191,3560.8,-105.24,-97.51,0.347,2.3602e-05,-4.3947e-07,1,-0.07134,-0.99745,1.2454e-06,0.99745,-0.07134,-2.3573e-05,-0.0030988,0.0019466,0.00065918,0.0007254,-3.8188e-09,3.0279e-09,0.0030559,-0.00049302,-6.923e-06,-4.0628e-09,-0.0031247,0.00065918,0.0019725,-0.99745,0.071338,4.3509e-07,5.3156e-07,1.3334e-06,1,-0.071338,-0.99745,1.3679e-06,0.00040094,-0.00041244,-0.00048152,2.8209e-09,-4.1707e-08,-0.00011695,-0.0034997,0.002359,0.0011407,-6.6397e-09,4.4734e-08,0.00084234,1,1,52.02,1742,0,3000
2.1426e-15,2.1426e-15,-0.15103,-97.012,-105.24,-6.9633,0.00016796,-0.0024833,0.42544,101.94,0,0,0,-202.4,10191,3560.8,-105.24,-97.51,0.347,2.3602e-05,-4.3947e-07,1,-0.07134,-0.99745,1.2454e-06,0.99745,-0.07134,-2.3573e-05,-0.0030988,0.0019466,0.00065918,0.0007254,-3.8188e-09,3.0279e-09,0.0030559,-0.00049302,-6.923e-06,-4.0628e-09,-0.0031247,0.00065918,0.0019725,-0.99745,0.071338,4.3509e-07,5.3156e-07,1.3334e-06,1,-0.071338,-0.99745,1.3679e-06,0.00040094,-0.00041244,-0.00048152,2.8209e-09,-4.1707e-08,-0.00011695,-0.0034997,0.002359,0.0011407,-6.6397e-09,4.4734e-08,0.00084234,1,1,52.08,1742.1,0,3000
2.3759e-15,2.3759e-15,-0.15103,-97.012,-105.24,-6.9633,0.00016796,-0.0024833,0.42544,101.94,0,0,0,-202.4,10191,3560.8,-105.24,-97.51,0.347,2.3602e-05,-4.3947e-07,1,-0.07134,-0.99745,1.2454e-06,0.99745,-0.07134,-2.3573e-05,-0.0030988,0.0019466,0.00065918,0.0007254,-3.8188e-09,3.0279e-09,0.0030559,-0.00049302,-6.923e-06,-4.0628e-09,-0.0031247,0.00065918,0.0019725,-0.99745,0.071338,4.3509e-07,5.3156e-07,1.3334e-06,1,-0.071338,-0.99745,1.3679e-06,0.00040094,-0.00041244,-0.00048152,2.8209e-09,-4.1707e-08,-0.00011695,-0.0034997,0.002359,0.0011407,-6.6397e-09,4.4734e-08,0.00084234,1,1,52.14,1742.1,0,3000
2.6088e-15,2.6088e-15,-0.15103,-97.012,-105.24,-6.9633,0.00016796,-0.0024833,0.42544,101.94,0,0,0,-202.4,10191,3560.8,-105.24,-97.51,0.347,2.3602e-05,-4.3947e-07,1,-0.07134,-0.99745,1.2454e-06,0.99745,-0.07134,-2.3573e-05,-0.0030988,0.0019466,0.00065918,0.0007254,-3.8188e-09,3.0279e-09,0.0030559,-0.00049302,-6.923e-06,-4.0628e-09,-0.0031247,0.00065918,0.0019725,-0.99745,0.071338,4.3509e-07,5.3156e-07,1.3334e-06,1,-0.071338,-0.99745,1.3679e-06,0.00040094,-0.00041244,-0.00048152,2.8209e-09,-4.1707e-08,-0.00011695,-0.0034997,0.002359,0.0011407,-6.6397e-09,4.4734e-08,0.00084234,1,1,52.2,1742.2,0,3000
2.8422e-15,2.8422e-15,-0.15103,-97.012,-105.24,-6.9633,0.00016796,-0.0024833,0.42544,101.94,0,0,0,-202.4,10191,3560.8,-105.24,-97.51,0.347,2.3602e-05,-4.3947e-07,1,-0.07134,-0.99745,1.2454e-06,0.99745,-0.07134,-2.3573e-05,-0.0030988,0.0019466,0.00065918,0.0007254,-3.8188e-09,3.0279e-09,0.0030559,-0.00049302,-6.923e-06,-4.0628e-09,-0.0031247,0.00065918,0.0019725,-0.99745,0.071338,4.3509e-07,5.3156e-07,1.3334e-06,1,-0.071338,-0.99745,1.3679e-06,0.00040094,-0.00041244,-0.00048152,2.8209e-09,-4.1707e-08,-0.00011695,-0.0034997,0.002359,0.0011407,-6.6397e-09,4.4734e-08,0.00084234,1,1,52.26,1742.3,0,3000
3.0751e-15,3.0751e-15,-0.15103,-97.012,-105.24,-6.9633,0.00016796,-0.0024833,0.42544,101.94,0,0,0,-202.4,10191,3560.8,-105.24,-97.51,0.347,2.3602e-05,-4.3947e-07,1,-0.07134,-0.99745,1.2454e-06,0.99745,-0.07134,-2.3573e-05,-0.0030988,0.0019466,0.00065918,0.0007254,-3.8188e-09,3.0279e-09,0.0030559,-0.00049302,-6.923e-06,-4.0628e-09,-0.0031247,0.00065918,0.0019725,-0.99745,0.071338,4.3509e-07,5.3156e-07,1.3334e-06,1,-0.071338,-0.99745,1.3679e-06,0.00040094,-0.00041244,-0.00048152,2.8209e-09,-4.1707e-08,-0.00011695,-0.0034997,0.002359,0.0011407,-6.6397e-09,4.4734e-08,0.00084234,1,1,52.32,1742.3,0,3000
3.3085e-15,3.3085e-15,-0.15103,-97.012,-105.24,-6.9633,0.00016796,-0.0024833,0.42544,101.94,0,0,0,-202.4,10191,3560.8,-105.24,-97.51,0.347,2.3602e-05,-4.3947e-07,1,-0.07134,-0.99745,1.2454e-06,0.99745,-0.07134,-2.3573e-05,-0.0030988,0.0019466,0.00065918,0.0007254,-3.8188e-09,3.0279e-09,0.0030559,-0.00049302,-6.923e-06,-4.0628e-09,-0.0031247,0.00065918,0.0019725,-0.99745,0.071338,4.3509e-07,5.3156e-07,1.3334e-06,1,-0.071338,-0.99745,1.3679e-06,0.00040094,-0.00041244,-0.00048152,2.8209e-09,-4.1707e-08,-0.00011695,-0.0034997,0.002359,0.0011407,-6.6397e-09,4.4734e-08,0.00084234,1,1,52.38,1742.4,0,3000
3.5414e-15,3.5414e-15,-0.15103,-97.012,-105.24,-6.9633,0.00016796,-0.0024833,0.42544,101.94,0,0,0,-202.4,10191,3560.8,-105.24,-97.51,0.347,2.3602e-05,-4.3947e-07,1,-0.07134,-0.99745,1.2454e-06,0.99745,-0.07134,-2.3573e-05,-0.0030988,0.0019466,0.00065918,0.0007254,-3.8188e-09,3.0279e-09,0.0030559,-0.00049302,-6.923e-06,-4.0628e-09,-0.0031247,0.00065918,0.0019725,-0.99745,0.071338,4.3509e-07,5.3156e-07,1.3334e-06,1,-0.071338,-0.99745,1.3679e-06,0.00040094,-0.00041244,-0.00048152,2.8209e-09,-4.1707e-08,-0.00011695,-0.0034997,0.002359,0.0011407,-6.6397e-09,4.4734e-08,0.00084234,1,1,52.44,1742.4,0,3000
3.7748e-15,3.7748e-15,-0.15103,-97.012,-105.24,-6.9633,0.00016796,-0.0024833,0.42544,101.94,0,0,0,-202.4,10191,3560.8,-105.24,-97.51,0.347,2.3602e-05,-4.3947e-07,1,-0.07134,-0.99745,1.2454e-06,0.99745,-0.07134,-2.3573e-05,-0.0030988,0.0019466,0.00065918,0.0007254,-3.8188e-09,3.0279e-09,0.0030559,-0.00049302,-6.923e-06,-4.0628e-09,-0.0031247,0.00065918,0.0019725,-0.99745,0.071338,4.3509e-07,5.3156e-07,1.3334e-06,1,-0.071338,-0.99745,1.3679e-06,0.00040094,-0.00041244,-0.00048152,2.8209e-09,-4.1707e-08,-0.00011695,-0.0034997,0.002359,0.0011407,-6.6397e-09,4.4734e-08,0.00084234,1,1,52.5,1742.5,0,3000
4.0081e-15,4.0081e-15,-0.15103,-97.012,-105.24,-6.9633,0.00016796,-0.0024833,0.42544,101.94,0,0,0,-202.4,10191,3560.8,-105.24,-97.51,0.347,2.3602e-05,-4.3947e-07,1,-0.07134,-0.99745,1.2454e-06,0.99745,-0.07134,-2.3573e-05,-0.0030988,0.0019466,0.00065918,0.0007254,-3.8188e-09,3.0279e-09,0.0030559,-0.00049302,-6.923e-06,-4.0628e-09,-0.0031247,0.00065918,0.0019725,-0.99745,0.071338,4.3509e-07,5.3156e-07,1.3334e-06,1,-0.071338,-0.99745,1.3679e-06,0.00040094,-0.00041244,-0.00048152,2.8209e-09,-4.1707e-08,-0.00011695,-0.0034997,0.002359,0.0011407,-6.6397e-09,4.4734e-08,0.00084234,1,1,52.56,1742.6,0,3000
4.241e-15,4.241e-15,-0.15103,-97.012,-105.24,-6.9633,0.00016796,-0.0024833,0.42544,101.94,0,0,0,-202.4,10191,3560.8,-105.24,-97.51,0.347,2.3602e-05,-4.3947e-07,1,-0.07134,-0.99745,1.2454e-06,0.99745,-0.07134,-2.3573e-05,-0.0030988,0.0019466,0.00065918,0.0007254,-3.8188e-09,3.0279e-09,0.0030559,-0.00049302,-6.923e-06,-4.0628e-09,-0.0031247,0.00065918,0.0019725,-0.99745,0.071338,4.3509e-07,5.3156e-07,1.3334e-06,1,-0.071338,-0.99745,1.3679e-06,0.00040094,-0.00041244,-0.00048152,2.8209e-09,-4.1707e-08,-0.00011695,-0.0034997,0.002359,0.0011407,-6.6397e-09,4.4734e-08,0.00084234,1,1,52.62,1742.6,0,3000
4.4744e-15,4.4744e-15,-0.15103,-97.012,-105.24,-6.9633,0.00016796,-0.0024833,0.42544,101.94,0,0,0,-202.4,10191,3560.8,-105.24,-97.51,0.347,2.3602e-05,-4.3947e-07,1,-0.07134,-0.99745,1.2454e-06,0.99745,-0.07134,-2.3573e-05,-0.0030988,0.0019466,0.00065918,0.0007254,-3.8188e-09,3.0279e-09,0.0030559,-0.00049302,-6.923e-06,-4.0628e-09,-0.0031247,0.00065918,0.0019725,-0.99745,0.071338,4.3509e-07,5.3156e-07,1.3334e-06,1,-0.071338,-0.99745,1.3679e-06,0.00040094,-0.00041244,-0.00048152,2.8209e-09,-4.1707e-08,-0.00011695,-0.0034997,0.002359,0.0011407,-6.6397e-09,4.4734e-08,0.00084234,1,1,52.68,1742.7,0,3000
4.7073e-15,4.7073e-15,-0.15103,-97.012,-105.24,-6.9633,0.00016796,-0.0024833,0.42544,101.94,0,0,0,-202.4,10191,3560.8,-105.24,-97.51,0.347,2.3602e-05,-4.3947e-07,1,-0.07134,-0.99745,1.2454e-06,0.99745,-0.07134,-2.3573e-05,-0.0030988,0.0019466,0.00065918,0.0007254,-3.8188e-09,3.0279e-09,0.0030559,-0.00049302,-6.923e-06,-4.0628e-09,-0.0031247,0.00065918,0.0019725,-0.99745,0.071338,4.3509e-07,5.3156e-07,1.3334e-06,1,-0.071338,-0.99745,1.3679e-06,0.00040094,-0.00041244,-0.00048152,2.8209e-09,-4.1707e-08,-0.00011695,-0.0034997,0.002359,0.0011407,-6.6397e-09,4.4734e-08,0.00084234,1,1,52.74,1742.7,0,3000
4.9407e-15,4.9407e-15,-0.15103,-97.012,-105.24,-6.9633,0.00016796,-0.0024833,0.42544,101.94,0,0,0,-202.4,10191,3560.8,-105.24,-97.51,0.347,2.3602e-05,-4.3947e-07,1,-0.07134,-0.99745,1.2454e-06,0.99745,-0.07134,-2.3573e-05,-0.0030988,0.0019466,0.00065918,0.0007254,-3.8188e-09,3.0279e-09,0.0030559,-0.00049302,-6.923e-06,-4.0628e-09,-0.0031247,0.00065918,0.0019725,-0.99745,0.071338,4.3509e-07,5.3156e-07,1.3334e-06,1,-0.071338,-0.99745,1.3679e-06,0.00040094,-0.00041244,-0.00048152,2.8209e-09,-4.1707e-08,-0.00011695,-0.0034997,0.002359,0.0011407,-6.6397e-09,4.4734e-08,0.00084234,1,1,52.8,1742.8,0,3000
5.1736e-15,5.1736e-15,-0.15103,-97.012,-105.24,-6.9633,0.00016796,-0.0024833,0.42544,101.94,0,0,0,-202.4,10191,3560.8,-105.24,-97.51,0.347,2.3602e-05,-4.3947e-07,1,-0.07134,-0.99745,1.2454e-06,0.99745,-0.07134,-2.3573e-05,-0.0030988,0.0019466,0.00065918,0.0007254,-3.8188e-09,3.0279e-09,0.0030559,-0.00049302,-6.923e-06,-4.0628e-09,-0.0031247,0.00065918,0.0019725,-0.99745,0.071338,4.3509e-07,5.3156e-07,1.3334e-06,1,-0.071338,-0.99745,1.3679e-06,0.00040094,-0.00041244,-0.00048152,2.8209e-09,-4.1707e-08,-0.00011695,-0.0034997,0.002359,0.0011407,-6.6397e-09,4.4734e-08,0.00084234,1,1,52.86,1742.9,0,3000
5.407e-15,5.407e-15,-0.15103,-97.012,-105.24,-6.9633,0.00016796,-0.0024833,0.42544,101.94,0,0,0,-202.4,10191,3560.8,-105.24,-97.51,0.347,2.3602e-05,-4.3947e-07,1,-0.07134,-0.99745,1.2454e-06,0.99745,-0.07134,-2.3573e-05,-0.0030988,0.0019466,0.00065918,0.0007254,-3.8188e-09,3.0279e-09,0.0030559,-0.00049302,-6.923e-06,-4.0628e-09,-0.0031247,0.00065918,0.0019725,-0.99745,0.071338,4.3509e-07,5.3156e-07,1.3334e-06,1,-0.071338,-0.99745,1.3679e-06,0.00040094,-0.00041244,-0.00048152,2.8209e-09,-4.1707e-08,-0.00011695,-0.0034997,0.002359,0.0011407,-6.6397e-09,4.4734e-08,0.00084234,1,1,52.92,1742.9,0,3000
5.6399e-15,5.6399e-15,-0.15103,-97.012,-105.24,-6.9633,0.00016796,-0.0024833,0.42544,101.94,0,0,0,-202.4,10191,3560.8,-105.24,-97.51,0.347,2.3602e-05,-4.3947e-07,1,-0.07134,-0.99745,1.2454e-06,0.99745,-0.07134,-2.3573e-05,-0.0030988,0.0019466,0.00065918,0.0007254,-3.8188e-09,3.0279e-09,0.0030559,-0.00049302,-6.923e-06,-4.0628e-09,-0.0031247,0.00065918,0.0019725,-0.99745,0.071338,4.3509e-07,5.3156e-07,1.3334e-06,1,-0.071338,-0.99745,1.3679e-06,0.00040094,-0.00041244,-0.00048152,2.8209e-09,-4.1707e-08,-0.00011695,-0.0034997,0.002359,0.0011407,-6.6397e-09,4.4734e-08,0.00084234,1,1,52.98,1743,0,3000
5.1776e-15,5.1776e-15,-0.2153,-98.356,-104.23,-7.0553,5.3853e-05,-0.0010267,0.63792,101.94,0,0,0,-202.8,10245,2980.9,-104.23,-98.861,0.2893,1.007e-05,2.9294e-06,1,-0.071339,-0.99745,3.6403e-06,0.99745,-0.071339,-9.8354e-06,-0.0030967,0.0019436,0.0006591,0.00072469,-3.1863e-08,3.6975e-07,0.0030532,-0.00049399,-6.9102e-06,-4.0536e-09,-0.0031226,0.0006591,0.0019696,0.99745,-0.071338,-4.9062e-05,4.9085e-05,-1.4432e-06,1,-0.071338,-0.99745,2.062e-06,0.00040119,-0.00042295,-0.00047223,9.0446e-10,-1.7244e-08,-0.00011849,-0.0034979,0.0023666,0.0011313,-3.2768e-08,3.87e-07,0.00084318,1,1,53.04,1743,0,3000
4.3691e-15,4.3691e-15,-0.2153,-98.356,-104.23,-7.0553,5.3853e-05,-0.0010267,0.63792,101.94,0,0,0,-202.8,10245,2980.9,-104.23,-98.861,0.2893,1.007e-05,2.9294e-06,1,-0.071339,-0.99745,3.6403e-06,0.99745,-0.071339,-9.8354e-06,-0.0030967,0.0019436,0.0006591,0.00072469,-3.1863e-08,3.6975e-07,0.0030532,-0.00049399,-6.9102e-06,-4.0536e-09,-0.0031226,0.0006591,0.0019696,0.99745,-0.071338,-4.9062e-05,4.9085e-05,-1.4432e-06,1,-0.071338,-0.99745,2.062e-06,0.00040119,-0.00042295,-0.00047223,9.0446e-10,-1.7244e-08,-0.00011849,-0.0034979,0.0023666,0.0011313,-3.2768e-08,3.87e-07,0.00084318,1,1,53.1,1743.1,0,3000
3.5589e-15,3.5589e-15,-0.2153,-98.356,-104.23,-7.0553,5.3853e-05,-0.0010267,0.63792,101.94,0,0,0,-202.8,10245,2980.9,-104.23,-98.861,0.2893,1.007e-05,2.9294e-06,1,-0.071339,-0.99745,3.6403e-06,0.99745,-0.071339,-9.8354e-06,-0.0030967,0.0019436,0.0006591,0.00072469,-3.1863e-08,3.6975e-07,0.0030532,-0.00049399,-6.9102e-06,-4.0536e-09,-0.0031226,0.0006591,0.0019696,0.99745,-0.071338,-4.9062e-05,4.9085e-05,-1.4432e-06,1,-0.071338,-0.99745,2.062e-06,0.00040119,-0.00042295,-0.00047223,9.0446e-10,-1.7244e-08,-0.00011849,-0.0034979,0.0023666,0.0011313,-3.2768e-08,3.87e-07,0.00084318,1,1,53.16,1743.2,0,3000
2.7504e-15,2.7504e-15,-0.2153,-98.356,-104.23,-7.0553,5.3853e-05,-0.0010267,0.63792,101.94,0,0,0,-202.8,10245,2980.9,-104.23,-98.861,0.2893,1.007e-05,2.9294e-06,1,-0.071339,-0.99745,3.6403e-06,0.99745,-0.071339,-9.8354e-06,-0.0030967,0.0019436,0.0006591,0.00072469,-3.1863e-08,3.6975e-07,0.0030532,-0.00049399,-6.9102e-06,-4.0536e-09,-0.0031226,0.0006591,0.0019696,0.99745,-0.071338,-4.9062e-05,4.9085e-05,-1.4432e-06,1,-0.071338,-0.99745,2.062e-06,0.00040119,-0.00042295,-0.00047223,9.0446e-10,-1.7244e-08,-0.00011849,-0.0034979,0.0023666,0.0011313,-3.2768e-08,3.87e-07,0.00084318,1,1,53.22,1743.2,0,3000
1.9403e-15,1.9403e-15,-0.2153,-98.356,-104.23,-7.0553,5.3853e-05,-0.0010267,0.63792,101.94,0,0,0,-202.8,10245,2980.9,-104.23,-98.861,0.2893,1.007e-05,2.9294e-06,1,-0.071339,-0.99745,3.6403e-06,0.99745,-0.071339,-9.8354e-06,-0.0030967,0.0019436,0.0006591,0.00072469,-3.1863e-08,3.6975e-07,0.0030532,-0.00049399,-6.9102e-06,-4.0536e-09,-0.0031226,0.0006591,0.0019696,0.99745,-0.071338,-4.9062e-05,4.9085e-05,-1.4432e-06,1,-0.071338,-0.99745,2.062e-06,0.00040119,-0.00042295,-0.00047223,9.0446e-10,-1.7244e-08,-0.00011849,-0.0034979,0.0023666,0.0011313,-3.2768e-08,3.87e-07,0.00084318,1,1,53.28,1743.3,0,3000
1.1318e-15,1.1318e-15,-0.2153,-98.356,-104.23,-7.0553,5.3853e-05,-0.0010267,0.63792,101.94,0,0,0,-202.8,10245,2980.9,-104.23,-98.861,0.2893,1.007e-05,2.9294e-06,1,-0.071339,-0.99745,3.6403e-06,0.99745,-0.071339,-9.8354e-06,-0.0030967,0.0019436,0.0006591,0.00072469,-3.1863e-08,3.6975e-07,0.0030532,-0.00049399,-6.9102e-06,-4.0536e-09,-0.0031226,0.0006591,0.0019696,0.99745,-0.071338,-4.9062e-05,4.9085e-05,-1.4432e-06,1,-0.071338,-0.99745,2.062e-06,0.00040119,-0.00042295,-0.00047223,9.0446e-10,-1.7244e-08,-0.00011849,-0.0034979,0.0023666,0.0011313,-3.2768e-08,3.87e-07,0.00084318,1,1,53.34,1743.3,0,3000
3.2164e-16,3.2164e-16,-0.2153,-98.356,-104.23,-7.0553,5.3853e-05,-0.0010267,0.63792,101.94,0,0,0,-202.8,10245,2980.9,-104.23,-98.861,0.2893,1.007e-05,2.9294e-06,1,-0.071339,-0.99745,3.6403e-06,0.99745,-0.071339,-9.8354e-06,-0.0030967,0.0019436,0.0006591,0.00072469,-3.1863e-08,3.6975e-07,0.0030532,-0.00049399,-6.9102e-06,-4.0536e-09,-0.0031226,0.0006591,0.0019696,0.99745,-0.071338,-4.9062e-05,4.9085e-05,-1.4432e-06,1,-0.071338,-0.99745,2.062e-06,0.00040119,-0.00042295,-0.00047223,9.0446e-10,-1.7244e-08,-0.00011849,-0.0034979,0.0023666,0.0011313,-3.2768e-08,3.87e-07,0.00084318,1,1,53.4,1743.4,0,3000
-4.8686e-16,-4.8686e-16,-0.2153,-98.356,-104.23,-7.0553,5.3853e-05,-0.0010267,0.63792,101.94,0,0,0,-202.8,10245,2980.9,-104.23,-98.861,0.2893,1.007e-05,2.9294e-06,1,-0.071339,-0.99745,3.6403e-06,0.99745,-0.071339,-9.8354e-06,-0.0030967,0.0019436,0.0006591,0.00072469,-3.1863e-08,3.6975e-07,0.0030532,-0.00049399,-6.9102e-06,-4.0536e-09,-0.0031226,0.0006591,0.0019696,0.99745,-0.071338,-4.9062e-05,4.9085e-05,-1.4432e-06,1,-0.071338,-0.99745,2.062e-06,0.00040119,-0.00042295,-0.00047223,9.0446e-10,-1.7244e-08,-0.00011849,-0.0034979,0.0023666,0.0011313,-3.2768e-08,3.87e-07,0.00084318,1,1,53.46,1743.5,0,3000
-1.297e-15,-1.297e-15,-0.2153,-98.356,-104.23,-7.0553,5.3853e-05,-0.0010267,0.63792,101.94,0,0,0,-202.8,10245,2980.9,-104.23,-98.861,0.2893,1.007e-05,2.9294e-06,1,-0.071339,-0.99745,3.6403e-06,0.99745,-0.071339,-9.8354e-06,-0.0030967,0.0019436,0.0006591,0.00072469,-3.1863e-08,3.6975e-07,0.0030532,-0.00049399,-6.9102e-06,-4.0536e-09,-0.0031226,0.0006591,0.0019696,0.99745,-0.071338,-4.9062e-05,4.9085e-05,-1.4432e-06,1,-0.071338,-0.99745,2.062e-06,0.00040119,-0.00042295,-0.00047223,9.0446e-10,-1.7244e-08,-0.00011849,-0.0034979,0.0023666,0.0011313,-3.2768e-08,3.87e-07,0.00084318,1,1,53.52,1743.5,0,3000
-2.1055e-15,-2.1055e-15,-0.2153,-98.356,-104.23,-7.0553,5.3853e-05,-0.0010267,0.63792,101.94,0,0,0,-202.8,10245,2980.9,-104.23,-98.861,0.2893,1.007e-05,2.9294e-06,1,-0.071339,-0.99745,3.6403e-06,0.99745,-0.071339,-9.8354e-06,-0.0030967,0.0019436,0.0006591,0.00072469,-3.1863e-08,3.6975e-07,0.0030532,-0.00049399,-6.9102e-06,-4.0536e-09,-0.0031226,0.0006591,0.0019696,0.99745,-0.071338,-4.9062e-05,4.9085e-05,-1.4432e-06,1,-0.071338,-0.99745,2.062e-06,0.00040119,-0.00042295,-0.00047223,9.0446e-10,-1.7244e-08,-0.00011849,-0.0034979,0.0023666,0.0011313,-3.2768e-08,3.87e-07,0.00084318,1,1,53.58,1743.6,0,3000
-2.9156e-15,-2.9156e-15,-0.2153,-98.356,-104.23,-7.0553,5.3853e-05,-0.0010267,0.63792,101.94,0,0,0,-202.8,10245,2980.9,-104.23,-98.861,0.2893,1.007e-05,2.9294e-06,1,-0.071339,-0.99745,3.6403e-06,0.99745,-0.071339,-9.8354e-06,-0.0030967,0.0019436,0.0006591,0.00072469,-3.1863e-08,3.6975e-07,0.0030532,-0.00049399,-6.9102e-06,-4.0536e-09,-0.0031226,0.0006591,0.0019696,0.99745,-0.071338,-4.9062e-05,4.9085e-05,-1.4432e-06,1,-0.071338,-0.99745,2.062e-06,0.00040119,-0.00042295,-0.00047223,9.0446e-10,-1.7244e-08,-0.00011849,-0.0034979,0.0023666,0.0011313,-3.2768e-08,3.87e-07,0.00084318,1,1,53.64,1743.6,0,3000
-3.7241e-15,-3.7241e-15,-0.2153,-98.356,-104.23,-7.0553,5.3853e-05,-0.0010267,0.63792,101.94,0,0,0,-202.8,10245,2980.9,-104.23,-98.861,0.2893,1.007e-05,2.9294e-06,1,-0.071339,-0.99745,3.6403e-06,0.99745,-0.071339,-9.8354e-06,-0.0030967,0.0019436,0.0006591,0.00072469,-3.1863e-08,3.6975e-07,0.0030532,-0.00049399,-6.9102e-06,-4.0536e-09,-0.0031226,0.0006591,0.0019696,0.99745,-0.071338,-4.9062e-05,4.9085e-05,-1.4432e-06,1,-0.071338,-0.99745,2.062e-06,0.00040119,-0.00042295,-0.00047223,9.0446e-10,-1.7244e-08,-0.00011849,-0.0034979,0.0023666,0.0011313,-3.2768e-08,3.87e-07,0.00084318,1,1,53.7,1743.7,0,3000
-4.5343e-15,-4.5343e-15,-0.2153,-98.356,-104.23,-7.0553,5.3853e-05,-0.0010267,0.63792,101.94,0,0,0,-202.8,10245,2980.9,-104.23,-98.861,0.2893,1.007e-05,2.9294e-06,1,-0.071339,-0.99745,3.6403e-06,0.99745,-0.071339,-9.8354e-06,-0.0030967,0.0019436,0.0006591,0.00072469,-3.1863e-08,3.6975e-07,0.0030532,-0.00049399,-6.9102e-06,-4.0536e-09,-0.0031226,0.0006591,0.0019696,0.99745,-0.071338,-4.9062e-05,4.9085e-05,-1.4432e-06,1,-0.071338,-0.99745,2.062e-06,0.00040119,-0.00042295,-0.00047223,9.0446e-10,-1.7244e-08,-0.00011849,-0.0034979,0.0023666,0.0011313,-3.2768e-08,3.87e-07,0.00084318,1,1,53.76,1743.8,0,3000
-5.3428e-15,-5.3428e-15,-0.2153,-98.356,-104.23,-7.0553,5.3853e-05,-0.0010267,0.63792,101.94,0,0,0,-202.8,10245,2980.9,-104.23,-98.861,0.2893,1.007e-05,2.9294e-06,1,-0.071339,-0.99745,3.6403e-06,0.99745,-0.071339,-9.8354e-06,-0.0030967,0.0019436,0.0006591,0.00072469,-3.1863e-08,3.6975e-07,0.0030532,-0.00049399,-6.9102e-06,-4.0536e-09,-0.0031226,0.0006591,0.0019696,0.99745,-0.071338,-4.9062e-05,4.9085e-05,-1.4432e-06,1,-0.071338,-0.99745,2.062e-06,0.00040119,-0.00042295,-0.00047223,9.0446e-10,-1.7244e-08,-0.00011849,-0.0034979,0.0023666,0.0011313,-3.2768e-08,3.87e-07,0.00084318,1,1,53.82,1743.8,0,3000
-6.1529e-15,-6.1529e-15,-0.2153,-98.356,-104.23,-7.0553,5.3853e-05,-0.0010267,0.63792,101.94,0,0,0,-202.8,10245,2980.9,-104.23,-98.861,0.2893,1.007e-05,2.9294e-06,1,-0.071339,-0.99745,3.6403e-06,0.99745,-0.071339,-9.8354e-06,-0.0030967,0.0019436,0.0006591,0.00072469,-3.1863e-08,3.6975e-07,0.0030532,-0.00049399,-6.9102e-06,-4.0536e-09,-0.0031226,0.0006591,0.0019696,0.99745,-0.071338,-4.9062e-05,4.9085e-05,-1.4432e-06,1,-0.071338,-0.99745,2.062e-06,0.00040119,-0.00042295,-0.00047223,9.0446e-10,-1.7244e-08,-0.00011849,-0.0034979,0.0023666,0.0011313,-3.2768e-08,3.87e-07,0.00084318,1,1,53.88,1743.9,0,3000
-6.9614e-15,-6.9614e-15,-0.2153,-98.356,-104.23,-7.0553,5.3853e-05,-0.0010267,0.63792,101.94,0,0,0,-202.8,10245,2980.9,-104.23,-98.861,0.2893,1.007e-05,2.9294e-06,1,-0.071339,-0.99745,3.6403e-06,0.99745,-0.071339,-9.8354e-06,-0.0030967,0.0019436,0.0006591,0.00072469,-3.1863e-08,3.6975e-07,0.0030532,-0.00049399,-6.9102e-06,-4.0536e-09,-0.0031226,0.0006591,0.0019696,0.99745,-0.071338,-4.9062e-05,4.9085e-05,-1.4432e-06,1,-0.071338,-0.99745,2.062e-06,0.00040119,-0.00042295,-0.00047223,9.0446e-10,-1.7244e-08,-0.00011849,-0.0034979,0.0023666,0.0011313,-3.2768e-08,3.87e-07,0.00084318,1,1,53.94,1743.9,0,3000
-7.7716e-15,-7.7716e-15,-0.2153,-98.356,-104.23,-7.0553,5.3853e-05,-0.0010267,0.63792,101.94,0,0,0,-202.8,10245,2980.9,-104.23,-98.861,0.2893,1.007e-05,2.9294e-06,1,-0.071339,-0.99745,3.6403e-06,0.99745,-0.071339,-9.8354e-06,-0.0030967,0.0019436,0.0006591,0.00072469,-3.1863e-08,3.6975e-07,0.0030532,-0.00049399,-6.9102e-06,-4.0536e-09,-0.0031226,0.0006591,0.0019696,0.99745,-0.071338,-4.9062e-05,4.9085e-05,-1.4432e-06,1,-0.071338,-0.99745,2.062e-06,0.00040119,-0.00042295,-0.00047223,9.0446e-10,-1.7244e-08,-0.00011849,-0.0034979,0.0023666,0.0011313,-3.2768e-08,3.87e-07,0.00084318,1,1,54,1744,0,3000
-6.3113e-15,-6.3113e-15,-0.27652,-99.097,-103.68,-7.1041,-6.7195e-05,0.00057346,0.88499,101.94,0,0,0,-203.06,10280,2391.7,-103.68,-99.605,0.23158,-5.0798e-06,6.7799e-06,1,-0.07134,-0.99745,6.4003e-06,0.99745,-0.07134,5.5506e-06,-0.0030944,0.0019407,0.00065902,0.00072393,-7.8042e-08,9.8247e-07,0.0030503,-0.00049463,-6.8967e-06,-4.044e-09,-0.0031203,0.00065902,0.0019666,0.99745,-0.071338,-0.00013039,0.00013027,-6.3436e-06,1,-0.071338,-0.99745,2.9655e-06,0.00040119,-0.00042865,-0.00046717,-1.1285e-09,9.6313e-09,-0.00011931,-0.0034956,0.0023694,0.0011262,-7.6913e-08,9.7284e-07,0.00084324,1,1,54.06,1744.1,0,3000
-4.854e-15,-4.854e-15,-0.27652,-99.097,-103.68,-7.1041,-6.7195e-05,0.00057346,0.88499,101.94,0,0,0,-203.06,10280,2391.7,-103.68,-99.605,0.23158,-5.0798e-06,6.7799e-06,1,-0.07134,-0.99745,6.4003e-06,0.99745,-0.07134,5.5506e-06,-0.0030944,0.0019407,0.00065902,0.00072393,-7.8042e-08,9.8247e-07,0.0030503,-0.00049463,-6.8967e-06,-4.044e-09,-0.0031203,0.00065902,0.0019666,0.99745,-0.071338,-0.00013039,0.00013027,-6.3436e-06,1,-0.071338,-0.99745,2.9655e-06,0.00040119,-0.00042865,-0.00046717,-1.1285e-09,9.6313e-09,-0.00011931,-0.0034956,0.0023694,0.0011262,-7.6913e-08,9.7284e-07,0.00084324,1,1,54.12,1744.1,0,3000
-3.3938e-15,-3.3938e-15,-0.27652,-99.097,-103.68,-7.1041,-6.7195e-05,0.00057346,0.88499,101.94,0,0,0,-203.06,10280,2391.7,-103.68,-99.605,0.23158,-5.0798e-06,6.7799e-06,1,-0.07134,-0.99745,6.4003e-06,0.99745,-0.07134,5.5506e-06,-0.0030944,0.0019407,0.00065902,0.00072393,-7.8042e-08,9.8247e-07,0.0030503,-0.00049463,-6.8967e-06,-4.044e-09,-0.0031203,0.00065902,0.0019666,0.99745,-0.071338,-0.00013039,0.00013027,-6.3436e-06,1,-0.071338,-0.99745,2.9655e-06,0.00040119,-0.00042865,-0.00046717,-1.1285e-09,9.6313e-09,-0.00011931,-0.0034956,0.0023694,0.0011262,-7.6913e-08,9.7284e-07,0.00084324,1,1,54.18,1744.2,0,3000
-1.9365e-15,-1.9365e-15,-0.27652,-99.097,-103.68,-7.1041,-6.7195e-05,0.00057346,0.88499,101.94,0,0,0,-203.06,10280,2391.7,-103.68,-99.605,0.23158,-5.0798e-06,6.7799e-06,1,-0.07134,-0.99745,6.4003e-06,0.99745,-0.07134,5.5506e-06,-0.0030944,0.0019407,0.00065902,0.00072393,-7.8042e-08,9.8247e-07,0.0030503,-0.00049463,-6.8967e-06,-4.044e-09,-0.0031203,0.00065902,0.0019666,0.99745,-0.071338,-0.00013039,0.00013027,-6.3436e-06,1,-0.071338,-0.99745,2.9655e-06,0.00040119,-0.00042865,-0.00046717,-1.1285e-09,9.6313e-09,-0.00011931,-0.0034956,0.0023694,0.0011262,-7.6913e-08,9.7284e-07,0.00084324,1,1,54.24,1744.2,0,3000
-4.7621e-16,-4.7621e-16,-0.27652,-99.097,-103.68,-7.1041,-6.7195e-05,0.00057346,0.88499,101.94,0,0,0,-203.06,10280,2391.7,-103.68,-99.605,0.23158,-5.0798e-06,6.7799e-06,1,-0.07134,-0.99745,6.4003e-06,0.99745,-0.07134,5.5506e-06,-0.0030944,0.0019407,0.00065902,0.00072393,-7.8042e-08,9.8247e-07,0.0030503,-0.00049463,-6.8967e-06,-4.044e-09,-0.0031203,0.00065902,0.0019666,0.99745,-0.071338,-0.00013039,0.00013027,-6.3436e-06,1,-0.071338,-0.99745,2.9655e-06,0.00040119,-0.00042865,-0.00046717,-1.1285e-09,9.6313e-09,-0.00011931,-0.0034956,0.0023694,0.0011262,-7.6913e-08,9.7284e-07,0.00084324,1,1,54.3,1744.3,0,3000
9.8108e-16,9.8108e-16,-0.27652,-99.097,-103.68,-7.1041,-6.7195e-05,0.00057346,0.88499,101.94,0,0,0,-203.06,10280,2391.7,-103.68,-99.605,0.23158,-5.0798e-06,6.7799e-06,1,-0.07134,-0.99745,6.4003e-06,0.99745,-0.07134,5.5506e-06,-0.0030944,0.0019407,0.00065902,0.00072393,-7.8042e-08,9.8247e-07,0.0030503,-0.00049463,-6.8967e-06,-4.044e-09,-0.0031203,0.00065902,0.0019666,0.99745,-0.071338,-0.00013039,0.00013027,-6.3436e-06,1,-0.071338,-0.99745,2.9655e-06,0.00040119,-0.00042865,-0.00046717,-1.1285e-09,9.6313e-09,-0.00011931,-0.0034956,0.0023694,0.0011262,-7.6913e-08,9.7284e-07,0.00084324,1,1,54.36,1744.4,0,3000
2.4413e-15,2.4413e-15,-0.27652,-99.097,-103.68,-7.1041,-6.7195e-05,0.00057346,0.88499,101.94,0,0,0,-203.06,10280,2391.7,-103.68,-99.605,0.23158,-5.0798e-06,6.7799e-06,1,-0.07134,-0.99745,6.4003e-06,0.99745,-0.07134,5.5506e-06,-0.0030944,0.0019407,0.00065902,0.00072393,-7.8042e-08,9.8247e-07,0.0030503,-0.00049463,-6.8967e-06,-4.044e-09,-0.0031203,0.00065902,0.0019666,0.99745,-0.071338,-0.00013039,0.00013027,-6.3436e-06,1,-0.071338,-0.99745,2.9655e-06,0.00040119,-0.00042865,-0.00046717,-1.1285e-09,9.6313e-09,-0.00011931,-0.0034956,0.0023694,0.0011262,-7.6913e-08,9.7284e-07,0.00084324,1,1,54.42,1744.4,0,3000
3.8986e-15,3.8986e-15,-0.27652,-99.097,-103.68,-7.1041,-6.7195e-05,0.00057346,0.88499,101.94,0,0,0,-203.06,10280,2391.7,-103.68,-99.605,0.23158,-5.0798e-06,6.7799e-06,1,-0.07134,-0.99745,6.4003e-06,0.99745,-0.07134,5.5506e-06,-0.0030944,0.0019407,0.00065902,0.00072393,-7.8042e-08,9.8247e-07,0.0030503,-0.00049463,-6.8967e-06,-4.044e-09,-0.0031203,0.00065902,0.0019666,0.99745,-0.071338,-0.00013039,0.00013027,-6.3436e-06,1,-0.071338,-0.99745,2.9655e-06,0.00040119,-0.00042865,-0.00046717,-1.1285e-09,9.6313e-09,-0.00011931,-0.0034956,0.0023694,0.0011262,-7.6913e-08,9.7284e-07,0.00084324,1,1,54.48,1744.5,0,3000
5.3589e-15,5.3589e-15,-0.27652,-99.097,-103.68,-7.1041,-6.7195e-05,0.00057346,0.88499,101.94,0,0,0,-203.06,10280,2391.7,-103.68,-99.605,0.23158,-5.0798e-06,6.7799e-06,1,-0.07134,-0.99745,6.4003e-06,0.99745,-0.07134,5.5506e-06,-0.0030944,0.0019407,0.00065902,0.00072393,-7.8042e-08,9.8247e-07,0.0030503,-0.00049463,-6.8967e-06,-4.044e-09,-0.0031203,0.00065902,0.0019666,0.99745,-0.071338,-0.00013039,0.00013027,-6.3436e-06,1,-0.071338,-0.99745,2.9655e-06,0.00040119,-0.00042865,-0.00046717,-1.1285e-09,9.6313e-09,-0.00011931,-0.0034956,0.0023694,0.0011262,-7.6913e-08,9.7284e-07,0.00084324,1,1,54.54,1744.5,0,3000
6.8162e-15,6.8162e-15,-0.27652,-99.097,-103.68,-7.1041,-6.7195e-05,0.00057346,0.88499,101.94,0,0,0,-203.06,10280,2391.7,-103.68,-99.605,0.23158,-5.0798e-06,6.7799e-06,1,-0.07134,-0.99745,6.4003e-06,0.99745,-0.07134,5.5506e-06,-0.0030944,0.0019407,0.00065902,0.00072393,-7.8042e-08,9.8247e-07,0.0030503,-0.00049463,-6.8967e-06,-4.044e-09,-0.0031203,0.00065902,0.0019666,0.99745,-0.071338,-0.00013039,0.00013027,-6.3436e-06,1,-0.071338,-0.99745,2.9655e-06,0.00040119,-0.00042865,-0.00046717,-1.1285e-09,9.6313e-09,-0.00011931,-0.0034956,0.0023694,0.0011262,-7.6913e-08,9.7284e-07,0.00084324,1,1,54.6,1744.6,0,3000
8.2764e-15,8.2764e-15,-0.27652,-99.097,-103.68,-7.1041,-6.7195e-05,0.00057346,0.88499,101.94,0,0,0,-203.06,10280,2391.7,-103.68,-99.605,0.23158,-5.0798e-06,6.7799e-06,1,-0.07134,-0.99745,6.4003e-06,0.99745,-0.07134,5.5506e-06,-0.0030944,0.0019407,0.00065902,0.00072393,-7.8042e-08,9.8247e-07,0.0030503,-0.00049463,-6.8967e-06,-4.044e-09,-0.0031203,0.00065902,0.0019666,0.99745,-0.071338,-0.00013039,0.00013027,-6.3436e-06,1,-0.071338,-0.99745,2.9655e-06,0.00040119,-0.00042865,-0.00046717,-1.1285e-09,9.6313e-09,-0.00011931,-0.0034956,0.0023694,0.0011262,-7.6913e-08,9.7284e-07,0.00084324,1,1,54.66,1744.7,0,3000
9.7337e-15,9.7337e-15,-0.27652,-99.097,-103.68,-7.1041,-6.7195e-05,0.00057346,0.88499,101.94,0,0,0,-203.06,10280,2391.7,-103.68,-99.605,0.23158,-5.0798e-06,6.7799e-06,1,-0.07134,-0.99745,6.4003e-06,0.99745,-0.07134,5.5506e-06,-0.0030944,0.0019407,0.00065902,0.00072393,-7.8042e-08,9.8247e-07,0.0030503,-0.00049463,-6.8967e-06,-4.044e-09,-0.0031203,0.00065902,0.0019666,0.99745,-0.071338,-0.00013039,0.00013027,-6.3436e-06,1,-0.071338,-0.99745,2.9655e-06,0.00040119,-0.00042865,-0.00046717,-1.1285e-09,9.6313e-09,-0.00011931,-0.0034956,0.0023694,0.0011262,-7.6913e-08,9.7284e-07,0.00084324,1,1,54.72,1744.7,0,3000
1.1194e-14,1.1194e-14,-0.27652,-99.097,-103.68,-7.1041,-6.7195e-05,0.00057346,0.88499,101.94,0,0,0,-203.06,10280,2391.7,-103.68,-99.605,0.23158,-5.0798e-06,6.7799e-06,1,-0.07134,-0.99745,6.4003e-06,0.99745,-0.07134,5.5506e-06,-0.0030944,0.0019407,0.00065902,0.00072393,-7.8042e-08,9.8247e-07,0.0030503,-0.00049463,-6.8967e-06,-4.044e-09,-0.0031203,0.00065902,0.0019666,0.99745,-0.071338,-0.00013039,0.00013027,-6.3436e-06,1,-0.071338,-0.99745,2.9655e-06,0.00040119,-0.00042865,-0.00046717,-1.1285e-09,9.6313e-09,-0.00011931,-0.0034956,0.0023694,0.0011262,-7.6913e-08,9.7284e-07,0.00084324,1,1,54.78,1744.8,0,3000
1.2651e-14,1.2651e-14,-0.27652,-99.097,-103.68,-7.1041,-6.7195e-05,0.00057346,0.88499,101.94,0,0,0,-203.06,10280,2391.7,-103.68,-99.605,0.23158,-5.0798e-06,6.7799e-06,1,-0.07134,-0.99745,6.4003e-06,0.99745,-0.07134,5.5506e-06,-0.0030944,0.0019407,0.00065902,0.00072393,-7.8042e-08,9.8247e-07,0.0030503,-0.00049463,-6.8967e-06,-4.044e-09,-0.0031203,0.00065902,0.0019666,0.99745,-0.071338,-0.00013039,0.00013027,-6.3436e-06,1,-0.071338,-0.99745,2.9655e-06,0.00040119,-0.00042865,-0.00046717,-1.1285e-09,9.6313e-09,-0.00011931,-0.0034956,0.0023694,0.0011262,-7.6913e-08,9.7284e-07,0.00084324,1,1,54.84,1744.8,0,3000
1.4112e-14,1.4112e-14,-0.27652,-99.097,-103.68,-7.1041,-6.7195e-05,0.00057346,0.88499,101.94,0,0,0,-203.06,10280,2391.7,-103.68,-99.605,0.23158,-5.0798e-06,6.7799e-06,1,-0.07134,-0.99745,6.4003e-06,0.99745,-0.07134,5.5506e-06,-0.0030944,0.0019407,0.00065902,0.00072393,-7.8042e-08,9.8247e-07,0.0030503,-0.00049463,-6.8967e-06,-4.044e-09,-0.0031203,0.00065902,0.0019666,0.99745,-0.071338,-0.00013039,0.00013027,-6.3436e-06,1,-0.071338,-0.99745,2.9655e-06,0.00040119,-0.00042865,-0.00046717,-1.1285e-09,9.6313e-09,-0.00011931,-0.0034956,0.0023694,0.0011262,-7.6913e-08,9.7284e-07,0.00084324,1,1,54.9,1744.9,0,3000
1.5569e-14,1.5569e-14,-0.27652,-99.097,-103.68,-7.1041,-6.7195e-05,0.00057346,0.88499,101.94,0,0,0,-203.06,10280,2391.7,-103.68,-99.605,0.23158,-5.0798e-06,6.7799e-06,1,-0.07134,-0.99745,6.4003e-06,0.99745,-0.07134,5.5506e-06,-0.0030944,0.0019407,0.00065902,0.00072393,-7.8042e-08,9.8247e-07,0.0030503,-0.00049463,-6.8967e-06,-4.044e-09,-0.0031203,0.00065902,0.0019666,0.99745,-0.071338,-0.00013039,0.00013027,-6.3436e-06,1,-0.071338,-0.99745,2.9655e-06,0.00040119,-0.00042865,-0.00046717,-1.1285e-09,9.6313e-09,-0.00011931,-0.0034956,0.0023694,0.0011262,-7.6913e-08,9.7284e-07,0.00084324,1,1,54.96,1745,0,3000
1.6229e-14,1.6229e-14,-0.33631,-99.553,-103.38,-7.1326,-0.00019872,0.0023643,1.1536,101.94,0,0,0,-203.27,10309,1798.2,-103.38,-100.06,0.17383,-2.2216e-05,1.0515e-05,1,-0.071339,-0.99745,8.9033e-06,0.99745,-0.071339,2.2909e-05,-0.0030919,0.0019378,0.00065893,0.00072316,-1.4452e-07,1.8819e-06,0.0030473,-0.00049515,-6.8828e-06,-4.0342e-09,-0.0031178,0.00065893,0.0019637,0.99745,-0.071338,-0.00024988,0.00024951,-1.404e-05,1,-0.071338,-0.99745,3.7952e-06,0.00040111,-0.00043205,-0.00046421,-3.3375e-09,3.9707e-08,-0.00011979,-0.003493,0.0023699,0.0011231,-1.4119e-07,1.8422e-06,0.00084295,1,1,55.02,1745,0,3000
1.5293e-14,1.5293e-14,-0.33631,-99.553,-103.38,-7.1326,-0.00019872,0.0023643,1.1536,101.94,0,0,0,-203.27,10309,1798.2,-103.38,-100.06,0.17383,-2.2216e-05,1.0515e-05,1,-0.071339,-0.99745,8.9033e-06,0.99745,-0.071339,2.2909e-05,-0.0030919,0.0019378,0.00065893,0.00072316,-1.4452e-07,1.8819e-06,0.0030473,-0.00049515,-6.8828e-06,-4.0342e-09,-0.0031178,0.00065893,0.0019637,0.99745,-0.071338,-0.00024988,0.00024951,-1.404e-05,1,-0.071338,-0.99745,3.7952e-06,0.00040111,-0.00043205,-0.00046421,-3.3375e-09,3.9707e-08,-0.00011979,-0.003493,0.0023699,0.0011231,-1.4119e-07,1.8422e-06,0.00084295,1,1,55.08,1745.1,0,3000
1.4354e-14,1.4354e-14,-0.33631,-99.553,-103.38,-7.1326,-0.00019872,0.0023643,1.1536,101.94,0,0,0,-203.27,10309,1798.2,-103.38,-100.06,0.17383,-2.2216e-05,1.0515e-05,1,-0.071339,-0.99745,8.9033e-06,0.99745,-0.071339,2.2909e-05,-0.0030919,0.0019378,0.00065893,0.00072316,-1.4452e-07,1.8819e-06,0.0030473,-0.00049515,-6.8828e-06,-4.0342e-09,-0.0031178,0.00065893,0.0019637,0.99745,-0.071338,-0.00024988,0.00024951,-1.404e-05,1,-0.071338,-0.99745,3.7952e-06,0.00040111,-0.00043205,-0.00046421,-3.3375e-09,3.9707e-08,-0.00011979,-0.003493,0.0023699,0.0011231,-1.4119e-07,1.8422e-06,0.00084295,1,1,55.14,1745.1,0,3000
1.3418e-14,1.3418e-14,-0.33631,-99.553,-103.38,-7.1326,-0.00019872,0.0023643,1.1536,101.94,0,0,0,-203.27,10309,1798.2,-103.38,-100.06,0.17383,-2.2216e-05,1.0515e-05,1,-0.071339,-0.99745,8.9033e-06,0.99745,-0.071339,2.2909e-05,-0.0030919,0.0019378,0.00065893,0.00072316,-1.4452e-07,1.8819e-06,0.0030473,-0.00049515,-6.8828e-06,-4.0342e-09,-0.0031178,0.00065893,0.0019637,0.99745,-0.071338,-0.00024988,0.00024951,-1.404e-05,1,-0.071338,-0.99745,3.7952e-06,0.00040111,-0.00043205,-0.00046421,-3.3375e-09,3.9707e-08,-0.00011979,-0.003493,0.0023699,0.0011231,-1.4119e-07,1.8422e-06,0.00084295,1,1,55.2,1745.2,0,3000
1.2479e-14,1.2479e-14,-0.33631,-99.553,-103.38,-7.1326,-0.00019872,0.0023643,1.1536,101.94,0,0,0,-203.27,10309,1798.2,-103.38,-100.06,0.17383,-2.2216e-05,1.0515e-05,1,-0.071339,-0.99745,8.9033e-06,0.99745,-0.071339,2.2909e-05,-0.0030919,0.0019378,0.00065893,0.00072316,-1.4452e-07,1.8819e-06,0.0030473,-0.00049515,-6.8828e-06,-4.0342e-09,-0.0031178,0.00065893,0.0019637,0.99745,-0.071338,-0.00024988,0.00024951,-1.404e-05,1,-0.071338,-0.99745,3.7952e-06,0.00040111,-0.00043205,-0.00046421,-3.3375e-09,3.9707e-08,-0.00011979,-0.003493,0.0023699,0.0011231,-1.4119e-07,1.8422e-06,0.00084295,1,1,55.26,1745.3,0,3000
1.1543e-14,1.1543e-14,-0.33631,-99.553,-103.38,-7.1326,-0.00019872,0.0023643,1.1536,101.94,0,0,0,-203.27,10309,1798.2,-103.38,-100.06,0.17383,-2.2216e-05,1.0515e-05,1,-0.071339,-0.99745,8.9033e-06,0.99745,-0.071339,2.2909e-05,-0.0030919,0.0019378,0.00065893,0.00072316,-1.4452e-07,1.8819e-06,0.0030473,-0.00049515,-6.8828e-06,-4.0342e-09,-0.0031178,0.00065893,0.0019637,0.99745,-0.071338,-0.00024988,0.00024951,-1.404e-05,1,-0.071338,-0.99745,3.7952e-06,0.00040111,-0.00043205,-0.00046421,-3.3375e-09,3.9707e-08,-0.00011979,-0.003493,0.0023699,0.0011231,-1.4119e-07,1.8422e-06,0.00084295,1,1,55.32,1745.3,0,3000
1.0604e-14,1.0604e-14,-0.33631,-99.553,-103.38,-7.1326,-0.00019872,0.0023643,1.1536,101.94,0,0,0,-203.27,10309,1798.2,-103.38,-100.06,0.17383,-2.2216e-05,1.0515e-05,1,-0.071339,-0.99745,8.9033e-06,0.99745,-0.071339,2.2909e-05,-0.0030919,0.0019378,0.00065893,0.00072316,-1.4452e-07,1.8819e-06,0.0030473,-0.00049515,-6.8828e-06,-4.0342e-09,-0.0031178,0.00065893,0.0019637,0.99745,-0.071338,-0.00024988,0.00024951,-1.404e-05,1,-0.071338,-0.99745,3.7952e-06,0.00040111,-0.00043205,-0.00046421,-3.3375e-09,3.9707e-08,-0.00011979,-0.003493,0.0023699,0.0011231,-1.4119e-07,1.8422e-06,0.00084295,1,1,55.38,1745.4,0,3000
9.6676e-15,9.6676e-15,-0.33631,-99.553,-103.38,-7.1326,-0.00019872,0.0023643,1.1536,101.94,0,0,0,-203.27,10309,1798.2,-103.38,-100.06,0.17383,-2.2216e-05,1.0515e-05,1,-0.071339,-0.99745,8.9033e-06,0.99745,-0.071339,2.2909e-05,-0.0030919,0.0019378,0.00065893,0.00072316,-1.4452e-07,1.8819e-06,0.0030473,-0.00049515,-6.8828e-06,-4.0342e-09,-0.0031178,0.00065893,0.0019637,0.99745,-0.071338,-0.00024988,0.00024951,-1.404e-05,1,-0.071338,-0.99745,3.7952e-06,0.00040111,-0.00043205,-0.00046421,-3.3375e-09,3.9707e-08,-0.00011979,-0.003493,0.0023699,0.0011231,-1.4119e-07,1.8422e-06,0.00084295,1,1,55.44,1745.4,0,3000
8.7291e-15,8.7291e-15,-0.33631,-99.553,-103.38,-7.1326,-0.00019872,0.0023643,1.1536,101.94,0,0,0,-203.27,10309,1798.2,-103.38,-100.06,0.17383,-2.2216e-05,1.0515e-05,1,-0.071339,-0.99745,8.9033e-06,0.99745,-0.071339,2.2909e-05,-0.0030919,0.0019378,0.00065893,0.00072316,-1.4452e-07,1.8819e-06,0.0030473,-0.00049515,-6.8828e-06,-4.0342e-09,-0.0031178,0.00065893,0.0019637,0.99745,-0.071338,-0.00024988,0.00024951,-1.404e-05,1,-0.071338,-0.99745,3.7952e-06,0.00040111,-0.00043205,-0.00046421,-3.3375e-09,3.9707e-08,-0.00011979,-0.003493,0.0023699,0.0011231,-1.4119e-07,1.8422e-06,0.00084295,1,1,55.5,1745.5,0,3000
7.7906e-15,7.7906e-15,-0.33631,-99.553,-103.38,-7.1326,-0.00019872,0.0023643,1.1536,101.94,0,0,0,-203.27,10309,1798.2,-103.38,-100.06,0.17383,-2.2216e-05,1.0515e-05,1,-0.071339,-0.99745,8.9033e-06,0.99745,-0.071339,2.2909e-05,-0.0030919,0.0019378,0.00065893,0.00072316,-1.4452e-07,1.8819e-06,0.0030473,-0.00049515,-6.8828e-06,-4.0342e-09,-0.0031178,0.00065893,0.0019637,0.99745,-0.071338,-0.00024988,0.00024951,-1.404e-05,1,-0.071338,-0.99745,3.7952e-06,0.00040111,-0.00043205,-0.00046421,-3.3375e-09,3.9707e-08,-0.00011979,-0.003493,0.0023699,0.0011231,-1.4119e-07,1.8422e-06,0.00084295,1,1,55.56,1745.6,0,3000
6.854e-15,6.854e-15,-0.33631,-99.553,-103.38,-7.1326,-0.00019872,0.0023643,1.1536,101.94,0,0,0,-203.27,10309,1798.2,-103.38,-100.06,0.17383,-2.2216e-05,1.0515e-05,1,-0.071339,-0.99745,8.9033e-06,0.99745,-0.071339,2.2909e-05,-0.0030919,0.0019378,0.00065893,0.00072316,-1.4452e-07,1.8819e-06,0.0030473,-0.00049515,-6.8828e-06,-4.0342e-09,-0.0031178,0.00065893,0.0019637,0.99745,-0.071338,-0.00024988,0.00024951,-1.404e-05,1,-0.071338,-0.99745,3.7952e-06,0.00040111,-0.00043205,-0.00046421,-3.3375e-09,3.9707e-08,-0.00011979,-0.003493,0.0023699,0.0011231,-1.4119e-07,1.8422e-06,0.00084295,1,1,55.62,1745.6,0,3000
5.9155e-15,5.9155e-15,-0.33631,-99.553,-103.38,-7.1326,-0.00019872,0.0023643,1.1536,101.94,0,0,0,-203.27,10309,1798.2,-103.38,-100.06,0.17383,-2.2216e-05,1.0515e-05,1,-0.071339,-0.99745,8.9033e-06,0.99745,-0.071339,2.2909e-05,-0.0030919,0.0019378,0.00065893,0.00072316,-1.4452e-07,1.8819e-06,0.0030473,-0.00049515,-6.8828e-06,-4.0342e-09,-0.0031178,0.00065893,0.0019637,0.99745,-0.071338,-0.00024988,0.00024951,-1.404e-05,1,-0.071338,-0.99745,3.7952e-06,0.00040111,-0.00043205,-0.00046421,-3.3375e-09,3.9707e-08,-0.00011979,-0.003493,0.0023699,0.0011231,-1.4119e-07,1.8422e-06,0.00084295,1,1,55.68,1745.7,0,3000
4.9789e-15,4.9789e-15,-0.33631,-99.553,-103.38,-7.1326,-0.00019872,0.0023643,1.1536,101.94,0,0,0,-203.27,10309,1798.2,-103.38,-100.06,0.17383,-2.2216e-05,1.0515e-05,1,-0.071339,-0.99745,8.9033e-06,0.99745,-0.071339,2.2909e-05,-0.0030919,0.0019378,0.00065893,0.00072316,-1.4452e-07,1.8819e-06,0.0030473,-0.00049515,-6.8828e-06,-4.0342e-09,-0.0031178,0.00065893,0.0019637,0.99745,-0.071338,-0.00024988,0.00024951,-1.404e-05,1,-0.071338,-0.99745,3.7952e-06,0.00040111,-0.00043205,-0.00046421,-3.3375e-09,3.9707e-08,-0.00011979,-0.003493,0.0023699,0.0011231,-1.4119e-07,1.8422e-06,0.00084295,1,1,55.74,1745.7,0,3000
4.0404e-15,4.0404e-15,-0.33631,-99.553,-103.38,-7.1326,-0.00019872,0.0023643,1.1536,101.94,0,0,0,-203.27,10309,1798.2,-103.38,-100.06,0.17383,-2.2216e-05,1.0515e-05,1,-0.071339,-0.99745,8.9033e-06,0.99745,-0.071339,2.2909e-05,-0.0030919,0.0019378,0.00065893,0.00072316,-1.4452e-07,1.8819e-06,0.0030473,-0.00049515,-6.8828e-06,-4.0342e-09,-0.0031178,0.00065893,0.0019637,0.99745,-0.071338,-0.00024988,0.00024951,-1.404e-05,1,-0.071338,-0.99745,3.7952e-06,0.00040111,-0.00043205,-0.00046421,-3.3375e-09,3.9707e-08,-0.00011979,-0.003493,0.0023699,0.0011231,-1.4119e-07,1.8422e-06,0.00084295,1,1,55.8,1745.8,0,3000
3.1039e-15,3.1039e-15,-0.33631,-99.553,-103.38,-7.1326,-0.00019872,0.0023643,1.1536,101.94,0,0,0,-203.27,10309,1798.2,-103.38,-100.06,0.17383,-2.2216e-05,1.0515e-05,1,-0.071339,-0.99745,8.9033e-06,0.99745,-0.071339,2.2909e-05,-0.0030919,0.0019378,0.00065893,0.00072316,-1.4452e-07,1.8819e-06,0.0030473,-0.00049515,-6.8828e-06,-4.0342e-09,-0.0031178,0.00065893,0.0019637,0.99745,-0.071338,-0.00024988,0.00024951,-1.404e-05,1,-0.071338,-0.99745,3.7952e-06,0.00040111,-0.00043205,-0.00046421,-3.3375e-09,3.9707e-08,-0.00011979,-0.003493,0.0023699,0.0011231,-1.4119e-07,1.8422e-06,0.00084295,1,1,55.86,1745.9,0,3000
2.1654e-15,2.1654e-15,-0.33631,-99.553,-103.38,-7.1326,-0.00019872,0.0023643,1.1536,101.94,0,0,0,-203.27,10309,1798.2,-103.38,-100.06,0.17383,-2.2216e-05,1.0515e-05,1,-0.071339,-0.99745,8.9033e-06,0.99745,-0.071339,2.2909e-05,-0.0030919,0.0019378,0.00065893,0.00072316,-1.4452e-07,1.8819e-06,0.0030473,-0.00049515,-6.8828e-06,-4.0342e-09,-0.0031178,0.00065893,0.0019637,0.99745,-0.071338,-0.00024988,0.00024951,-1.404e-05,1,-0.071338,-0.99745,3.7952e-06,0.00040111,-0.00043205,-0.00046421,-3.3375e-09,3.9707e-08,-0.00011979,-0.003493,0.0023699,0.0011231,-1.4119e-07,1.8422e-06,0.00084295,1,1,55.92,1745.9,0,3000
1.2288e-15,1.2288e-15,-0.33631,-99.553,-103.38,-7.1326,-0.00019872,0.0023643,1.1536,101.94,0,0,0,-203.27,10309,1798.2,-103.38,-100.06,0.17383,-2.2216e-05,1.0515e-05,1,-0.071339,-0.99745,8.9033e-06,0.99745,-0.071339,2.2909e-05,-0.0030919,0.0019378,0.00065893,0.00072316,-1.4452e-07,1.8819e-06,0.0030473,-0.00049515,-6.8828e-06,-4.0342e-09,-0.0031178,0.00065893,0.0019637,0.99745,-0.071338,-0.00024988,0.00024951,-1.404e-05,1,-0.071338,-0.99745,3.7952e-06,0.00040111,-0.00043205,-0.00046421,-3.3375e-09,3.9707e-08,-0.00011979,-0.003493,0.0023699,0.0011231,-1.4119e-07,1.8422e-06,0.00084295,1,1,55.98,1746,0,3000
7.2368e-16,7.2368e-16,-0.39538,-99.864,-103.21,-7.1507,-0.00034722,0.0044376,1.4387,101.94,0,0,0,-203.47,10336,1202.2,-103.21,-100.38,0.11605,-4.222e-05,1.3554e-05,1,-0.071339,-0.99745,1.0508e-05,0.99745,-0.071339,4.3079e-05,-0.0030894,0.0019349,0.00065885,0.00072238,-2.3573e-07,3.1403e-06,0.0030443,-0.00049562,-6.8689e-06,-4.0245e-09,-0.0031152,0.00065885,0.0019608,0.99745,-0.071338,-0.0004172,0.00041644,-2.5508e-05,1,-0.071338,-0.99745,4.265e-06,0.000401,-0.00043428,-0.00046235,-5.8315e-09,7.453e-08,-0.0001201,-0.0034904,0.0023692,0.0011212,-2.299e-07,3.0657e-06,0.00084248,1,1,56.04,1746,0,3000
4.3588e-16,4.3588e-16,-0.39538,-99.864,-103.21,-7.1507,-0.00034722,0.0044376,1.4387,101.94,0,0,0,-203.47,10336,1202.2,-103.21,-100.38,0.11605,-4.222e-05,1.3554e-05,1,-0.071339,-0.99745,1.0508e-05,0.99745,-0.071339,4.3079e-05,-0.0030894,0.0019349,0.00065885,0.00072238,-2.3573e-07,3.1403e-06,0.0030443,-0.00049562,-6.8689e-06,-4.0245e-09,-0.0031152,0.00065885,0.0019608,0.99745,-0.071338,-0.0004172,0.00041644,-2.5508e-05,1,-0.071338,-0.99745,4.265e-06,0.000401,-0.00043428,-0.00046235,-5.8315e-09,7.453e-08,-0.0001201,-0.0034904,0.0023692,0.0011212,-2.299e-07,3.0657e-06,0.00084248,1,1,56.1,1746.1,0,3000
1.475e-16,1.475e-16,-0.39538,-99.864,-103.21,-7.1507,-0.00034722,0.0044376,1.4387,101.94,0,0,0,-203.47,10336,1202.2,-103.21,-100.38,0.11605,-4.222e-05,1.3554e-05,1,-0.071339,-0.99745,1.0508e-05,0.99745,-0.071339,4.3079e-05,-0.0030894,0.0019349,0.00065885,0.00072238,-2.3573e-07,3.1403e-06,0.0030443,-0.00049562,-6.8689e-06,-4.0245e-09,-0.0031152,0.00065885,0.0019608,0.99745,-0.071338,-0.0004172,0.00041644,-2.5508e-05,1,-0.071338,-0.99745,4.265e-06,0.000401,-0.00043428,-0.00046235,-5.8315e-09,7.453e-08,-0.0001201,-0.0034904,0.0023692,0.0011212,-2.299e-07,3.0657e-06,0.00084248,1,1,56.16,1746.2,0,3000
-1.403e-16,-1.403e-16,-0.39538,-99.864,-103.21,-7.1507,-0.00034722,0.0044376,1.4387,101.94,0,0,0,-203.47,10336,1202.2,-103.21,-100.38,0.11605,-4.222e-05,1.3554e-05,1,-0.071339,-0.99745,1.0508e-05,0.99745,-0.071339,4.3079e-05,-0.0030894,0.0019349,0.00065885,0.00072238,-2.3573e-07,3.1403e-06,0.0030443,-0.00049562,-6.8689e-06,-4.0245e-09,-0.0031152,0.00065885,0.0019608,0.99745,-0.071338,-0.0004172,0.00041644,-2.5508e-05,1,-0.071338,-0.99745,4.265e-06,0.000401,-0.00043428,-0.00046235,-5.8315e-09,7.453e-08,-0.0001201,-0.0034904,0.0023692,0.0011212,-2.299e-07,3.0657e-06,0.00084248,1,1,56.22,1746.2,0,3000
-4.2869e-16,-4.2869e-16,-0.39538,-99.864,-103.21,-7.1507,-0.00034722,0.0044376,1.4387,101.94,0,0,0,-203.47,10336,1202.2,-103.21,-100.38,0.11605,-4.222e-05,1.3554e-05,1,-0.071339,-0.99745,1.0508e-05,0.99745,-0.071339,4.3079e-05,-0.0030894,0.0019349,0.00065885,0.00072238,-2.3573e-07,3.1403e-06,0.0030443,-0.00049562,-6.8689e-06,-4.0245e-09,-0.0031152,0.00065885,0.0019608,0.99745,-0.071338,-0.0004172,0.00041644,-2.5508e-05,1,-0.071338,-0.99745,4.265e-06,0.000401,-0.00043428,-0.00046235,-5.8315e-09,7.453e-08,-0.0001201,-0.0034904,0.0023692,0.0011212,-2.299e-07,3.0657e-06,0.00084248,1,1,56.28,1746.3,0,3000
-7.1648e-16,-7.1648e-16,-0.39538,-99.864,-103.21,-7.1507,-0.00034722,0.0044376,1.4387,101.94,0,0,0,-203.47,10336,1202.2,-103.21,-100.38,0.11605,-4.222e-05,1.3554e-05,1,-0.071339,-0.99745,1.0508e-05,0.99745,-0.071339,4.3079e-05,-0.0030894,0.0019349,0.00065885,0.00072238,-2.3573e-07,3.1403e-06,0.0030443,-0.00049562,-6.8689e-06,-4.0245e-09,-0.0031152,0.00065885,0.0019608,0.99745,-0.071338,-0.0004172,0.00041644,-2.5508e-05,1,-0.071338,-0.99745,4.265e-06,0.000401,-0.00043428,-0.00046235,-5.8315e-09,7.453e-08,-0.0001201,-0.0034904,0.0023692,0.0011212,-2.299e-07,3.0657e-06,0.00084248,1,1,56.34,1746.3,0,3000
-1.0049e-15,-1.0049e-15,-0.39538,-99.864,-103.21,-7.1507,-0.00034722,0.0044376,1.4387,101.94,0,0,0,-203.47,10336,1202.2,-103.21,-100.38,0.11605,-4.222e-05,1.3554e-05,1,-0.071339,-0.99745,1.0508e-05,0.99745,-0.071339,4.3079e-05,-0.0030894,0.0019349,0.00065885,0.00072238,-2.3573e-07,3.1403e-06,0.0030443,-0.00049562,-6.8689e-06,-4.0245e-09,-0.0031152,0.00065885,0.0019608,0.99745,-0.071338,-0.0004172,0.00041644,-2.5508e-05,1,-0.071338,-0.99745,4.265e-06,0.000401,-0.00043428,-0.00046235,-5.8315e-09,7.453e-08,-0.0001201,-0.0034904,0.0023692,0.0011212,-2.299e-07,3.0657e-06,0.00084248,1,1,56.4,1746.4,0,3000
-1.2927e-15,-1.2927e-15,-0.39538,-99.864,-103.21,-7.1507,-0.00034722,0.0044376,1.4387,101.94,0,0,0,-203.47,10336,1202.2,-103.21,-100.38,0.11605,-4.222e-05,1.3554e-05,1,-0.071339,-0.99745,1.0508e-05,0.99745,-0.071339,4.3079e-05,-0.0030894,0.0019349,0.00065885,0.00072238,-2.3573e-07,3.1403e-06,0.0030443,-0.00049562,-6.8689e-06,-4.0245e-09,-0.0031152,0.00065885,0.0019608,0.99745,-0.071338,-0.0004172,0.00041644,-2.5508e-05,1,-0.071338,-0.99745,4.265e-06,0.000401,-0.00043428,-0.00046235,-5.8315e-09,7.453e-08,-0.0001201,-0.0034904,0.0023692,0.0011212,-2.299e-07,3.0657e-06,0.00084248,1,1,56.46,1746.5,0,3000
-1.5811e-15,-1.5811e-15,-0.39538,-99.864,-103.21,-7.1507,-0.00034722,0.0044376,1.4387,101.94,0,0,0,-203.47,10336,1202.2,-103.21,-100.38,0.11605,-4.222e-05,1.3554e-05,1,-0.071339,-0.99745,1.0508e-05,0.99745,-0.071339,4.3079e-05,-0.0030894,0.0019349,0.00065885,0.00072238,-2.3573e-07,3.1403e-06,0.0030443,-0.00049562,-6.8689e-06,-4.0245e-09,-0.0031152,0.00065885,0.0019608,0.99745,-0.071338,-0.0004172,0.00041644,-2.5508e-05,1,-0.071338,-0.99745,4.265e-06,0.000401,-0.00043428,-0.00046235,-5.8315e-09,7.453e-08,-0.0001201,-0.0034904,0.0023692,0.0011212,-2.299e-07,3.0657e-06,0.00084248,1,1,56.52,1746.5,0,3000
-1.8688e-15,-1.8688e-15,-0.39538,-99.864,-103.21,-7.1507,-0.00034722,0.0044376,1.4387,101.94,0,0,0,-203.47,10336,1202.2,-103.21,-100.38,0.11605,-4.222e-05,1.3554e-05,1,-0.071339,-0.99745,1.0508e-05,0.99745,-0.071339,4.3079e-05,-0.0030894,0.0019349,0.00065885,0.00072238,-2.3573e-07,3.1403e-06,0.0030443,-0.00049562,-6.8689e-06,-4.0245e-09,-0.0031152,0.00065885,0.0019608,0.99745,-0.071338,-0.0004172,0.00041644,-2.5508e-05,1,-0.071338,-0.99745,4.265e-06,0.000401,-0.00043428,-0.00046235,-5.8315e-09,7.453e-08,-0.0001201,-0.0034904,0.0023692,0.0011212,-2.299e-07,3.0657e-06,0.00084248,1,1,56.58,1746.6,0,3000
-2.1572e-15,-2.1572e-15,-0.39538,-99.864,-103.21,-7.1507,-0.00034722,0.0044376,1.4387,101.94,0,0,0,-203.47,10336,1202.2,-103.21,-100.38,0.11605,-4.222e-05,1.3554e-05,1,-0.071339,-0.99745,1.0508e-05,0.99745,-0.071339,4.3079e-05,-0.0030894,0.0019349,0.00065885,0.00072238,-2.3573e-07,3.1403e-06,0.0030443,-0.00049562,-6.8689e-06,-4.0245e-09,-0.0031152,0.00065885,0.0019608,0.99745,-0.071338,-0.0004172,0.00041644,-2.5508e-05,1,-0.071338,-0.99745,4.265e-06,0.000401,-0.00043428,-0.00046235,-5.8315e-09,7.453e-08,-0.0001201,-0.0034904,0.0023692,0.0011212,-2.299e-07,3.0657e-06,0.00084248,1,1,56.64,1746.6,0,3000
-2.445e-15,-2.445e-15,-0.39538,-99.864,-103.21,-7.1507,-0.00034722,0.0044376,1.4387,101.94,0,0,0,-203.47,10336,1202.2,-103.21,-100.38,0.11605,-4.222e-05,1.3554e-05,1,-0.071339,-0.99745,1.0508e-05,0.99745,-0.071339,4.3079e-05,-0.0030894,0.0019349,0.00065885,0.00072238,-2.3573e-07,3.1403e-06,0.0030443,-0.00049562,-6.8689e-06,-4.0245e-09,-0.0031152,0.00065885,0.0019608,0.99745,-0.071338,-0.0004172,0.00041644,-2.5508e-05,1,-0.071338,-0.99745,4.265e-06,0.000401,-0.00043428,-0.00046235,-5.8315e-09,7.453e-08,-0.0001201,-0.0034904,0.0023692,0.0011212,-2.299e-07,3.0657e-06,0.00084248,1,1,56.7,1746.7,0,3000
-2.7334e-15,-2.7334e-15,-0.39538,-99.864,-103.21,-7.1507,-0.00034722,0.0044376,1.4387,101.94,0,0,0,-203.47,10336,1202.2,-103.21,-100.38,0.11605,-4.222e-05,1.3554e-05,1,-0.071339,-0.99745,1.0508e-05,0.99745,-0.071339,4.3079e-05,-0.0030894,0.0019349,0.00065885,0.00072238,-2.3573e-07,3.1403e-06,0.0030443,-0.00049562,-6.8689e-06,-4.0245e-09,-0.0031152,0.00065885,0.0019608,0.99745,-0.071338,-0.0004172,0.00041644,-2.5508e-05,1,-0.071338,-0.99745,4.265e-06,0.000401,-0.00043428,-0.00046235,-5.8315e-09,7.453e-08,-0.0001201,-0.0034904,0.0023692,0.0011212,-2.299e-07,3.0657e-06,0.00084248,1,1,56.76,1746.8,0,3000
-3.0212e-15,-3.0212e-15,-0.39538,-99.864,-103.21,-7.1507,-0.00034722,0.0044376,1.4387,101.94,0,0,0,-203.47,10336,1202.2,-103.21,-100.38,0.11605,-4.222e-05,1.3554e-05,1,-0.071339,-0.99745,1.0508e-05,0.99745,-0.071339,4.3079e-05,-0.0030894,0.0019349,0.00065885,0.00072238,-2.3573e-07,3.1403e-06,0.0030443,-0.00049562,-6.8689e-06,-4.0245e-09,-0.0031152,0.00065885,0.0019608,0.99745,-0.071338,-0.0004172,0.00041644,-2.5508e-05,1,-0.071338,-0.99745,4.265e-06,0.000401,-0.00043428,-0.00046235,-5.8315e-09,7.453e-08,-0.0001201,-0.0034904,0.0023692,0.0011212,-2.299e-07,3.0657e-06,0.00084248,1,1,56.82,1746.8,0,3000
-3.3096e-15,-3.3096e-15,-0.39538,-99.864,-103.21,-7.1507,-0.00034722,0.0044376,1.4387,101.94,0,0,0,-203.47,10336,1202.2,-103.21,-100.38,0.11605,-4.222e-05,1.3554e-05,1,-0.071339,-0.99745,1.0508e-05,0.99745,-0.071339,4.3079e-05,-0.0030894,0.0019349,0.00065885,0.00072238,-2.3573e-07,3.1403e-06,0.0030443,-0.00049562,-6.8689e-06,-4.0245e-09,-0.0031152,0.00065885,0.0019608,0.99745,-0.071338,-0.0004172,0.00041644,-2.5508e-05,1,-0.071338,-0.99745,4.265e-06,0.000401,-0.00043428,-0.00046235,-5.8315e-09,7.453e-08,-0.0001201,-0.0034904,0.0023692,0.0011212,-2.299e-07,3.0657e-06,0.00084248,1,1,56.88,1746.9,0,3000
-3.5974e-15,-3.5974e-15,-0.39538,-99.864,-103.21,-7.1507,-0.00034722,0.0044376,1.4387,101.94,0,0,0,-203.47,10336,1202.2,-103.21,-100.38,0.11605,-4.222e-05,1.3554e-05,1,-0.071339,-0.99745,1.0508e-05,0.99745,-0.071339,4.3079e-05,-0.0030894,0.0019349,0.00065885,0.00072238,-2.3573e-07,3.1403e-06,0.0030443,-0.00049562,-6.8689e-06,-4.0245e-09,-0.0031152,0.00065885,0.0019608,0.99745,-0.071338,-0.0004172,0.00041644,-2.5508e-05,1,-0.071338,-0.99745,4.265e-06,0.000401,-0.00043428,-0.00046235,-5.8315e-09,7.453e-08,-0.0001201,-0.0034904,0.0023692,0.0011212,-2.299e-07,3.0657e-06,0.00084248,1,1,56.94,1746.9,0,3000
-3.8858e-15,-3.8858e-15,-0.39538,-99.864,-103.21,-7.1507,-0.00034722,0.0044376,1.4387,101.94,0,0,0,-203.47,10336,1202.2,-103.21,-100.38,0.11605,-4.222e-05,1.3554e-05,1,-0.071339,-0.99745,1.0508e-05,0.99745,-0.071339,4.3079e-05,-0.0030894,0.0019349,0.00065885,0.00072238,-2.3573e-07,3.1403e-06,0.0030443,-0.00049562,-6.8689e-06,-4.0245e-09,-0.0031152,0.00065885,0.0019608,0.99745,-0.071338,-0.0004172,0.00041644,-2.5508e-05,1,-0.071338,-0.99745,4.265e-06,0.000401,-0.00043428,-0.00046235,-5.8315e-09,7.453e-08,-0.0001201,-0.0034904,0.0023692,0.0011212,-2.299e-07,3.0657e-06,0.00084248,1,1,57,1747,0,3000
-3.6249e-15,-3.6249e-15,-0.45403,-100.09,-103.11,-7.1629,-0.00052272,0.0069437,1.739,101.94,0,0,0,-203.65,10361,604.41,-103.11,-100.6,0.058268,-6.6583e-05,1.5187e-05,1,-0.071339,-0.99745,1.0398e-05,0.99745,-0.071339,6.7496e-05,-0.0030869,0.001932,0.00065877,0.0007216,-3.5816e-07,4.861e-06,0.0030413,-0.00049608,-6.855e-06,-4.0147e-09,-0.0031127,0.00065877,0.0019578,0.99745,-0.071338,-0.00064619,0.00064483,-4.2077e-05,1,-0.071338,-0.99745,4.0309e-06,0.00040088,-0.00043582,-0.00046114,-8.7789e-09,1.1662e-07,-0.0001203,-0.0034878,0.0023679,0.0011199,-3.4938e-07,4.7444e-06,0.0008419,1,1,57.06,1747.1,0,3000
-3.3646e-15,-3.3646e-15,-0.45403,-100.09,-103.11,-7.1629,-0.00052272,0.0069437,1.739,101.94,0,0,0,-203.65,10361,604.41,-103.11,-100.6,0.058268,-6.6583e-05,1.5187e-05,1,-0.071339,-0.99745,1.0398e-05,0.99745,-0.071339,6.7496e-05,-0.0030869,0.001932,0.00065877,0.0007216,-3.5816e-07,4.861e-06,0.0030413,-0.00049608,-6.855e-06,-4.0147e-09,-0.0031127,0.00065877,0.0019578,0.99745,-0.071338,-0.00064619,0.00064483,-4.2077e-05,1,-0.071338,-0.99745,4.0309e-06,0.00040088,-0.00043582,-0.00046114,-8.7789e-09,1.1662e-07,-0.0001203,-0.0034878,0.0023679,0.0011199,-3.4938e-07,4.7444e-06,0.0008419,1,1,57.12,1747.1,0,3000
-3.1037e-15,-3.1037e-15,-0.45403,-100.09,-103.11,-7.1629,-0.00052272,0.0069437,1.739,101.94,0,0,0,-203.65,10361,604.41,-103.11,-100.6,0.058268,-6.6583e-05,1.5187e-05,1,-0.071339,-0.99745,1.0398e-05,0.99745,-0.071339,6.7496e-05,-0.0030869,0.001932,0.00065877,0.0007216,-3.5816e-07,4.861e-06,0.0030413,-0.00049608,-6.855e-06,-4.0147e-09,-0.0031127,0.00065877,0.0019578,0.99745,-0.071338,-0.00064619,0.00064483,-4.2077e-05,1,-0.071338,-0.99745,4.0309e-06,0.00040088,-0.00043582,-0.00046114,-8.7789e-09,1.1662e-07,-0.0001203,-0.0034878,0.0023679,0.0011199,-3.4938e-07,4.7444e-06,0.0008419,1,1,57.18,1747.2,0,3000
-2.8433e-15,-2.8433e-15,-0.45403,-100.09,-103.11,-7.1629,-0.00052272,0.0069437,1.739,101.94,0,0,0,-203.65,10361,604.41,-103.11,-100.6,0.058268,-6.6583e-05,1.5187e-05,1,-0.071339,-0.99745,1.0398e-05,0.99745,-0.071339,6.7496e-05,-0.0030869,0.001932,0.00065877,0.0007216,-3.5816e-07,4.861e-06,0.0030413,-0.00049608,-6.855e-06,-4.0147e-09,-0.0031127,0.00065877,0.0019578,0.99745,-0.071338,-0.00064619,0.00064483,-4.2077e-05,1,-0.071338,-0.99745,4.0309e-06,0.00040088,-0.00043582,-0.00046114,-8.7789e-09,1.1662e-07,-0.0001203,-0.0034878,0.0023679,0.0011199,-3.4938e-07,4.7444e-06,0.0008419,1,1,57.24,1747.2,0,3000
-2.5824e-15,-2.5824e-15,-0.45403,-100.09,-103.11,-7.1629,-0.00052272,0.0069437,1.739,101.94,0,0,0,-203.65,10361,604.41,-103.11,-100.6,0.058268,-6.6583e-05,1.5187e-05,1,-0.071339,-0.99745,1.0398e-05,0.99745,-0.071339,6.7496e-05,-0.0030869,0.001932,0.00065877,0.0007216,-3.5816e-07,4.861e-06,0.0030413,-0.00049608,-6.855e-06,-4.0147e-09,-0.0031127,0.00065877,0.0019578,0.99745,-0.071338,-0.00064619,0.00064483,-4.2077e-05,1,-0.071338,-0.99745,4.0309e-06,0.00040088,-0.00043582,-0.00046114,-8.7789e-09,1.1662e-07,-0.0001203,-0.0034878,0.0023679,0.0011199,-3.4938e-07,4.7444e-06,0.0008419,1,1,57.3,1747.3,0,3000
-2.3221e-15,-2.3221e-15,-0.45403,-100.09,-103.11,-7.1629,-0.00052272,0.0069437,1.739,101.94,0,0,0,-203.65,10361,604.41,-103.11,-100.6,0.058268,-6.6583e-05,1.5187e-05,1,-0.071339,-0.99745,1.0398e-05,0.99745,-0.071339,6.7496e-05,-0.0030869,0.001932,0.00065877,0.0007216,-3.5816e-07,4.861e-06,0.0030413,-0.00049608,-6.855e-06,-4.0147e-09,-0.0031127,0.00065877,0.0019578,0.99745,-0.071338,-0.00064619,0.00064483,-4.2077e-05,1,-0.071338,-0.99745,4.0309e-06,0.00040088,-0.00043582,-0.00046114,-8.7789e-09,1.1662e-07,-0.0001203,-0.0034878,0.0023679,0.0011199,-3.4938e-07,4.7444e-06,0.0008419,1,1,57.36,1747.4,0,3000
-2.0612e-15,-2.0612e-15,-0.45403,-100.09,-103.11,-7.1629,-0.00052272,0.0069437,1.739,101.94,0,0,0,-203.65,10361,604.41,-103.11,-100.6,0.058268,-6.6583e-05,1.5187e-05,1,-0.071339,-0.99745,1.0398e-05,0.99745,-0.071339,6.7496e-05,-0.0030869,0.001932,0.00065877,0.0007216,-3.5816e-07,4.861e-06,0.0030413,-0.00049608,-6.855e-06,-4.0147e-09,-0.0031127,0.00065877,0.0019578,0.99745,-0.071338,-0.00064619,0.00064483,-4.2077e-05,1,-0.071338,-0.99745,4.0309e-06,0.00040088,-0.00043582,-0.00046114,-8.7789e-09,1.1662e-07,-0.0001203,-0.0034878,0.0023679,0.0011199,-3.4938e-07,4.7444e-06,0.0008419,1,1,57.42,1747.4,0,3000
-1.8009e-15,-1.8009e-15,-0.45403,-100.09,-103.11,-7.1629,-0.00052272,0.0069437,1.739,101.94,0,0,0,-203.65,10361,604.41,-103.11,-100.6,0.058268,-6.6583e-05,1.5187e-05,1,-0.071339,-0.99745,1.0398e-05,0.99745,-0.071339,6.7496e-05,-0.0030869,0.001932,0.00065877,0.0007216,-3.5816e-07,4.861e-06,0.0030413,-0.00049608,-6.855e-06,-4.0147e-09,-0.0031127,0.00065877,0.0019578,0.99745,-0.071338,-0.00064619,0.00064483,-4.2077e-05,1,-0.071338,-0.99745,4.0309e-06,0.00040088,-0.00043582,-0.00046114,-8.7789e-09,1.1662e-07,-0.0001203,-0.0034878,0.0023679,0.0011199,-3.4938e-07,4.7444e-06,0.0008419,1,1,57.48,1747.5,0,3000
-1.54e-15,-1.54e-15,-0.45403,-100.09,-103.11,-7.1629,-0.00052272,0.0069437,1.739,101.94,0,0,0,-203.65,10361,604.41,-103.11,-100.6,0.058268,-6.6583e-05,1.5187e-05,1,-0.071339,-0.99745,1.0398e-05,0.99745,-0.071339,6.7496e-05,-0.0030869,0.001932,0.00065877,0.0007216,-3.5816e-07,4.861e-06,0.0030413,-0.00049608,-6.855e-06,-4.0147e-09,-0.0031127,0.00065877,0.0019578,0.99745,-0.071338,-0.00064619,0.00064483,-4.2077e-05,1,-0.071338,-0.99745,4.0309e-06,0.00040088,-0.00043582,-0.00046114,-8.7789e-09,1.1662e-07,-0.0001203,-0.0034878,0.0023679,0.0011199,-3.4938e-07,4.7444e-06,0.0008419,1,1,57.54,1747.5,0,3000
-1.2796e-15,-1.2796e-15,-0.45403,-100.09,-103.11,-7.1629,-0.00052272,0.0069437,1.739,101.94,0,0,0,-203.65,10361,604.41,-103.11,-100.6,0.058268,-6.6583e-05,1.5187e-05,1,-0.071339,-0.99745,1.0398e-05,0.99745,-0.071339,6.7496e-05,-0.0030869,0.001932,0.00065877,0.0007216,-3.5816e-07,4.861e-06,0.0030413,-0.00049608,-6.855e-06,-4.0147e-09,-0.0031127,0.00065877,0.0019578,0.99745,-0.071338,-0.00064619,0.00064483,-4.2077e-05,1,-0.071338,-0.99745,4.0309e-06,0.00040088,-0.00043582,-0.00046114,-8.7789e-09,1.1662e-07,-0.0001203,-0.0034878,0.0023679,0.0011199,-3.4938e-07,4.7444e-06,0.0008419,1,1,57.6,1747.6,0,3000
-1.0188e-15,-1.0188e-15,-0.45403,-100.09,-103.11,-7.1629,-0.00052272,0.0069437,1.739,101.94,0,0,0,-203.65,10361,604.41,-103.11,-100.6,0.058268,-6.6583e-05,1.5187e-05,1,-0.071339,-0.99745,1.0398e-05,0.99745,-0.071339,6.7496e-05,-0.0030869,0.001932,0.00065877,0.0007216,-3.5816e-07,4.861e-06,0.0030413,-0.00049608,-6.855e-06,-4.0147e-09,-0.0031127,0.00065877,0.0019578,0.99745,-0.071338,-0.00064619,0.00064483,-4.2077e-05,1,-0.071338,-0.99745,4.0309e-06,0.00040088,-0.00043582,-0.00046114,-8.7789e-09,1.1662e-07,-0.0001203,-0.0034878,0.0023679,0.0011199,-3.4938e-07,4.7444e-06,0.0008419,1,1,57.66,1747.7,0,3000
-7.5841e-16,-7.5841e-16,-0.45403,-100.09,-103.11,-7.1629,-0.00052272,0.0069437,1.739,101.94,0,0,0,-203.65,10361,604.41,-103.11,-100.6,0.058268,-6.6583e-05,1.5187e-05,1,-0.071339,-0.99745,1.0398e-05,0.99745,-0.071339,6.7496e-05,-0.0030869,0.001932,0.00065877,0.0007216,-3.5816e-07,4.861e-06,0.0030413,-0.00049608,-6.855e-06,-4.0147e-09,-0.0031127,0.00065877,0.0019578,0.99745,-0.071338,-0.00064619,0.00064483,-4.2077e-05,1,-0.071338,-0.99745,4.0309e-06,0.00040088,-0.00043582,-0.00046114,-8.7789e-09,1.1662e-07,-0.0001203,-0.0034878,0.0023679,0.0011199,-3.4938e-07,4.7444e-06,0.0008419,1,1,57.72,1747.7,0,3000
-4.9753e-16,-4.9753e-16,-0.45403,-100.09,-103.11,-7.1629,-0.00052272,0.0069437,1.739,101.94,0,0,0,-203.65,10361,604.41,-103.11,-100.6,0.058268,-6.6583e-05,1.5187e-05,1,-0.071339,-0.99745,1.0398e-05,0.99745,-0.071339,6.7496e-05,-0.0030869,0.001932,0.00065877,0.0007216,-3.5816e-07,4.861e-06,0.0030413,-0.00049608,-6.855e-06,-4.0147e-09,-0.0031127,0.00065877,0.0019578,0.99745,-0.071338,-0.00064619,0.00064483,-4.2077e-05,1,-0.071338,-0.99745,4.0309e-06,0.00040088,-0.00043582,-0.00046114,-8.7789e-09,1.1662e-07,-0.0001203,-0.0034878,0.0023679,0.0011199,-3.4938e-07,4.7444e-06,0.0008419,1,1,57.78,1747.8,0,3000
-2.3718e-16,-2.3718e-16,-0.45403,-100.09,-103.11,-7.1629,-0.00052272,0.0069437,1.739,101.94,0,0,0,-203.65,10361,604.41,-103.11,-100.6,0.058268,-6.6583e-05,1.5187e-05,1,-0.071339,-0.99745,1.0398e-05,0.99745,-0.071339,6.7496e-05,-0.0030869,0.001932,0.00065877,0.0007216,-3.5816e-07,4.861e-06,0.0030413,-0.00049608,-6.855e-06,-4.0147e-09,-0.0031127,0.00065877,0.0019578,0.99745,-0.071338,-0.00064619,0.00064483,-4.2077e-05,1,-0.071338,-0.99745,4.0309e-06,0.00040088,-0.00043582,-0.00046114,-8.7789e-09,1.1662e-07,-0.0001203,-0.0034878,0.0023679,0.0011199,-3.4938e-07,4.7444e-06,0.0008419,1,1,57.84,1747.8,0,3000
2.3698e-17,2.3698e-17,-0.45403,-100.09,-103.11,-7.1629,-0.00052272,0.0069437,1.739,101.94,0,0,0,-203.65,10361,604.41,-103.11,-100.6,0.058268,-6.6583e-05,1.5187e-05,1,-0.071339,-0.99745,1.0398e-05,0.99745,-0.071339,6.7496e-05,-0.0030869,0.001932,0.00065877,0.0007216,-3.5816e-07,4.861e-06,0.0030413,-0.00049608,-6.855e-06,-4.0147e-09,-0.0031127,0.00065877,0.0019578,0.99745,-0.071338,-0.00064619,0.00064483,-4.2077e-05,1,-0.071338,-0.99745,4.0309e-06,0.00040088,-0.00043582,-0.00046114,-8.7789e-09,1.1662e-07,-0.0001203,-0.0034878,0.0023679,0.0011199,-3.4938e-07,4.7444e-06,0.0008419,1,1,57.9,1747.9,0,3000
2.8405e-16,2.8405e-16,-0.45403,-100.09,-103.11,-7.1629,-0.00052272,0.0069437,1.739,101.94,0,0,0,-203.65,10361,604.41,-103.11,-100.6,0.058268,-6.6583e-05,1.5187e-05,1,-0.071339,-0.99745,1.0398e-05,0.99745,-0.071339,6.7496e-05,-0.0030869,0.001932,0.00065877,0.0007216,-3.5816e-07,4.861e-06,0.0030413,-0.00049608,-6.855e-06,-4.0147e-09,-0.0031127,0.00065877,0.0019578,0.99745,-0.071338,-0.00064619,0.00064483,-4.2077e-05,1,-0.071338,-0.99745,4.0309e-06,0.00040088,-0.00043582,-0.00046114,-8.7789e-09,1.1662e-07,-0.0001203,-0.0034878,0.0023679,0.0011199,-3.4938e-07,4.7444e-06,0.0008419,1,1,57.96,1748,0,3000
4.5338e-16,4.5338e-16,-0.51242,-100.27,-103.05,-7.1714,-0.00073131,0.0099792,2.052,101.94,0,0,0,-203.83,10386,5.1479,-103.05,-100.78,0.00049567,-9.6297e-05,1.4633e-05,1,-0.071339,-0.99745,7.7262e-06,0.99745,-0.071339,9.7095e-05,-0.0030844,0.0019292,0.00065869,0.00072082,-5.2131e-07,7.1932e-06,0.0030382,-0.00049652,-6.841e-06,-4.0049e-09,-0.0031101,0.00065869,0.0019549,0.99745,-0.071338,-0.0009568,0.00095455,-6.5626e-05,1,-0.071338,-0.99745,2.6365e-06,0.00040075,-0.00043695,-0.00046032,-1.2282e-08,1.676e-07,-0.00012044,-0.0034851,0.0023661,0.001119,-5.0903e-07,7.0256e-06,0.00084127,1,1,58.02,1748,0,3000
4.3966e-16,4.3966e-16,-0.51242,-100.27,-103.05,-7.1714,-0.00073131,0.0099792,2.052,101.94,0,0,0,-203.83,10386,5.1479,-103.05,-100.78,0.00049567,-9.6297e-05,1.4633e-05,1,-0.071339,-0.99745,7.7262e-06,0.99745,-0.071339,9.7095e-05,-0.0030844,0.0019292,0.00065869,0.00072082,-5.2131e-07,7.1932e-06,0.0030382,-0.00049652,-6.841e-06,-4.0049e-09,-0.0031101,0.00065869,0.0019549,0.99745,-0.071338,-0.0009568,0.00095455,-6.5626e-05,1,-0.071338,-0.99745,2.6365e-06,0.00040075,-0.00043695,-0.00046032,-1.2282e-08,1.676e-07,-0.00012044,-0.0034851,0.0023661,0.001119,-5.0903e-07,7.0256e-06,0.00084127,1,1,58.08,1748.1,0,3000
4.2591e-16,4.2591e-16,-0.51242,-100.27,-103.05,-7.1714,-0.00073131,0.0099792,2.052,101.94,0,0,0,-203.83,10386,5.1479,-103.05,-100.78,0.00049567,-9.6297e-05,1.4633e-05,1,-0.071339,-0.99745,7.7262e-06,0.99745,-0.071339,9.7095e-05,-0.0030844,0.0019292,0.00065869,0.00072082,-5.2131e-07,7.1932e-06,0.0030382,-0.00049652,-6.841e-06,-4.0049e-09,-0.0031101,0.00065869,0.0019549,0.99745,-0.071338,-0.0009568,0.00095455,-6.5626e-05,1,-0.071338,-0.99745,2.6365e-06,0.00040075,-0.00043695,-0.00046032,-1.2282e-08,1.676e-07,-0.00012044,-0.0034851,0.0023661,0.001119,-5.0903e-07,7.0256e-06,0.00084127,1,1,58.14,1748.1,0,3000
4.1218e-16,4.1218e-16,-0.51242,-100.27,-103.05,-7.1714,-0.00073131,0.0099792,2.052,101.94,0,0,0,-203.83,10386,5.1479,-103.05,-100.78,0.00049567,-9.6297e-05,1.4633e-05,1,-0.071339,-0.99745,7.7262e-06,0.99745,-0.071339,9.7095e-05,-0.0030844,0.0019292,0.00065869,0.00072082,-5.2131e-07,7.1932e-06,0.0030382,-0.00049652,-6.841e-06,-4.0049e-09,-0.0031101,0.00065869,0.0019549,0.99745,-0.071338,-0.0009568,0.00095455,-6.5626e-05,1,-0.071338,-0.99745,2.6365e-06,0.00040075,-0.00043695,-0.00046032,-1.2282e-08,1.676e-07,-0.00012044,-0.0034851,0.0023661,0.001119,-5.0903e-07,7.0256e-06,0.00084127,1,1,58.2,1748.2,0,3000
3.9843e-16,3.9843e-16,-0.51242,-100.27,-103.05,-7.1714,-0.00073131,0.0099792,2.052,101.94,0,0,0,-203.83,10386,5.1479,-103.05,-100.78,0.00049567,-9.6297e-05,1.4633e-05,1,-0.071339,-0.99745,7.7262e-06,0.99745,-0.071339,9.7095e-05,-0.0030844,0.0019292,0.00065869,0.00072082,-5.2131e-07,7.1932e-06,0.0030382,-0.00049652,-6.841e-06,-4.0049e-09,-0.0031101,0.00065869,0.0019549,0.99745,-0.071338,-0.0009568,0.00095455,-6.5626e-05,1,-0.071338,-0.99745,2.6365e-06,0.00040075,-0.00043695,-0.00046032,-1.2282e-08,1.676e-07,-0.00012044,-0.0034851,0.0023661,0.001119,-5.0903e-07,7.0256e-06,0.00084127,1,1,58.26,1748.3,0,3000
3.847e-16,3.847e-16,-0.51242,-100.27,-103.05,-7.1714,-0.00073131,0.0099792,2.052,101.94,0,0,0,-203.83,10386,5.1479,-103.05,-100.78,0.00049567,-9.6297e-05,1.4633e-05,1,-0.071339,-0.99745,7.7262e-06,0.99745,-0.071339,9.7095e-05,-0.0030844,0.0019292,0.00065869,0.00072082,-5.2131e-07,7.1932e-06,0.0030382,-0.00049652,-6.841e-06,-4.0049e-09,-0.0031101,0.00065869,0.0019549,0.99745,-0.071338,-0.0009568,0.00095455,-6.5626e-05,1,-0.071338,-0.99745,2.6365e-06,0.00040075,-0.00043695,-0.00046032,-1.2282e-08,1.676e-07,-0.00012044,-0.0034851,0.0023661,0.001119,-5.0903e-07,7.0256e-06,0.00084127,1,1,58.32,1748.3,0,3000
3.7095e-16,3.7095e-16,-0.51242,-100.27,-103.05,-7.1714,-0.00073131,0.0099792,2.052,101.94,0,0,0,-203.83,10386,5.1479,-103.05,-100.78,0.00049567,-9.6297e-05,1.4633e-05,1,-0.071339,-0.99745,7.7262e-06,0.99745,-0.071339,9.7095e-05,-0.0030844,0.0019292,0.00065869,0.00072082,-5.2131e-07,7.1932e-06,0.0030382,-0.00049652,-6.841e-06,-4.0049e-09,-0.0031101,0.00065869,0.0019549,0.99745,-0.071338,-0.0009568,0.00095455,-6.5626e-05,1,-0.071338,-0.99745,2.6365e-06,0.00040075,-0.00043695,-0.00046032,-1.2282e-08,1.676e-07,-0.00012044,-0.0034851,0.0023661,0.001119,-5.0903e-07,7.0256e-06,0.00084127,1,1,58.38,1748.4,0,3000
3.5723e-16,3.5723e-16,-0.51242,-100.27,-103.05,-7.1714,-0.00073131,0.0099792,2.052,101.94,0,0,0,-203.83,10386,5.1479,-103.05,-100.78,0.00049567,-9.6297e-05,1.4633e-05,1,-0.071339,-0.99745,7.7262e-06,0.99745,-0.071339,9.7095e-05,-0.0030844,0.0019292,0.00065869,0.00072082,-5.2131e-07,7.1932e-06,0.0030382,-0.00049652,-6.841e-06,-4.0049e-09,-0.0031101,0.00065869,0.0019549,0.99745,-0.071338,-0.0009568,0.00095455,-6.5626e-05,1,-0.071338,-0.99745,2.6365e-06,0.00040075,-0.00043695,-0.00046032,-1.2282e-08,1.676e-07,-0.00012044,-0.0034851,0.0023661,0.001119,-5.0903e-07,7.0256e-06,0.00084127,1,1,58.44,1748.4,0,3000
3.4348e-16,3.4348e-16,-0.51242,-100.27,-103.05,-7.1714,-0.00073131,0.0099792,2.052,101.94,0,0,0,-203.83,10386,5.1479,-103.05,-100.78,0.00049567,-9.6297e-05,1.4633e-05,1,-0.071339,-0.99745,7.7262e-06,0.99745,-0.071339,9.7095e-05,-0.0030844,0.0019292,0.00065869,0.00072082,-5.2131e-07,7.1932e-06,0.0030382,-0.00049652,-6.841e-06,-4.0049e-09,-0.0031101,0.00065869,0.0019549,0.99745,-0.071338,-0.0009568,0.00095455,-6.5626e-05,1,-0.071338,-0.99745,2.6365e-06,0.00040075,-0.00043695,-0.00046032,-1.2282e-08,1.676e-07,-0.00012044,-0.0034851,0.0023661,0.001119,-5.0903e-07,7.0256e-06,0.00084127,1,1,58.5,1748.5,0,3000
3.2972e-16,3.2972e-16,-0.51242,-100.27,-103.05,-7.1714,-0.00073131,0.0099792,2.052,101.94,0,0,0,-203.83,10386,5.1479,-103.05,-100.78,0.00049567,-9.6297e-05,1.4633e-05,1,-0.071339,-0.99745,7.7262e-06,0.99745,-0.071339,9.7095e-05,-0.0030844,0.0019292,0.00065869,0.00072082,-5.2131e-07,7.1932e-06,0.0030382,-0.00049652,-6.841e-06,-4.0049e-09,-0.0031101,0.00065869,0.0019549,0.99745,-0.071338,-0.0009568,0.00095455,-6.5626e-05,1,-0.071338,-0.99745,2.6365e-06,0.00040075,-0.00043695,-0.00046032,-1.2282e-08,1.676e-07,-0.00012044,-0.0034851,0.0023661,0.001119,-5.0903e-07,7.0256e-06,0.00084127,1,1,58.56,1748.6,0,3000
3.16e-16,3.16e-16,-0.51242,-100.27,-103.05,-7.1714,-0.00073131,0.0099792,2.052,101.94,0,0,0,-203.83,10386,5.1479,-103.05,-100.78,0.00049567,-9.6297e-05,1.4633e-05,1,-0.071339,-0.99745,7.7262e-06,0.99745,-0.071339,9.7095e-05,-0.0030844,0.0019292,0.00065869,0.00072082,-5.2131e-07,7.1932e-06,0.0030382,-0.00049652,-6.841e-06,-4.0049e-09,-0.0031101,0.00065869,0.0019549,0.99745,-0.071338,-0.0009568,0.00095455,-6.5626e-05,1,-0.071338,-0.99745,2.6365e-06,0.00040075,-0.00043695,-0.00046032,-1.2282e-08,1.676e-07,-0.00012044,-0.0034851,0.0023661,0.001119,-5.0903e-07,7.0256e-06,0.00084127,1,1,58.62,1748.6,0,3000
3.0225e-16,3.0225e-16,-0.51242,-100.27,-103.05,-7.1714,-0.00073131,0.0099792,2.052,101.94,0,0,0,-203.83,10386,5.1479,-103.05,-100.78,0.00049567,-9.6297e-05,1.4633e-05,1,-0.071339,-0.99745,7.7262e-06,0.99745,-0.071339,9.7095e-05,-0.0030844,0.0019292,0.00065869,0.00072082,-5.2131e-07,7.1932e-06,0.0030382,-0.00049652,-6.841e-06,-4.0049e-09,-0.0031101,0.00065869,0.0019549,0.99745,-0.071338,-0.0009568,0.00095455,-6.5626e-05,1,-0.071338,-0.99745,2.6365e-06,0.00040075,-0.00043695,-0.00046032,-1.2282e-08,1.676e-07,-0.00012044,-0.0034851,0.0023661,0.001119,-5.0903e-07,7.0256e-06,0.00084127,1,1,58.68,1748.7,0,3000
2.8852e-16,2.8852e-16,-0.51242,-100.27,-103.05,-7.1714,-0.00073131,0.0099792,2.052,101.94,0,0,0,-203.83,10386,5.1479,-103.05,-100.78,0.00049567,-9.6297e-05,1.4633e-05,1,-0.071339,-0.99745,7.7262e-06,0.99745,-0.071339,9.7095e-05,-0.0030844,0.0019292,0.00065869,0.00072082,-5.2131e-07,7.1932e-06,0.0030382,-0.00049652,-6.841e-06,-4.0049e-09,-0.0031101,0.00065869,0.0019549,0.99745,-0.071338,-0.0009568,0.00095455,-6.5626e-05,1,-0.071338,-0.99745,2.6365e-06,0.00040075,-0.00043695,-0.00046032,-1.2282e-08,1.676e-07,-0.00012044,-0.0034851,0.0023661,0.001119,-5.0903e-07,7.0256e-06,0.00084127,1,1,58.74,1748.7,0,3000
2.7477e-16,2.7477e-16,-0.51242,-100.27,-103.05,-7.1714,-0.00073131,0.0099792,2.052,101.94,0,0,0,-203.83,10386,5.1479,-103.05,-100.78,0.00049567,-9.6297e-05,1.4633e-05,1,-0.071339,-0.99745,7.7262e-06,0.99745,-0.071339,9.7095e-05,-0.0030844,0.0019292,0.00065869,0.00072082,-5.2131e-07,7.1932e-06,0.0030382,-0.00049652,-6.841e-06,-4.0049e-09,-0.0031101,0.00065869,0.0019549,0.99745,-0.071338,-0.0009568,0.00095455,-6.5626e-05,1,-0.071338,-0.99745,2.6365e-06,0.00040075,-0.00043695,-0.00046032,-1.2282e-08,1.676e-07,-0.00012044,-0.0034851,0.0023661,0.001119,-5.0903e-07,7.0256e-06,0.00084127,1,1,58.8,1748.8,0,3000
2.6104e-16,2.6104e-16,-0.51242,-100.27,-103.05,-7.1714,-0.00073131,0.0099792,2.052,101.94,0,0,0,-203.83,10386,5.1479,-103.05,-100.78,0.00049567,-9.6297e-05,1.4633e-05,1,-0.071339,-0.99745,7.7262e-06,0.99745,-0.071339,9.7095e-05,-0.0030844,0.0019292,0.00065869,0.00072082,-5.2131e-07,7.1932e-06,0.0030382,-0.00049652,-6.841e-06,-4.0049e-09,-0.0031101,0.00065869,0.0019549,0.99745,-0.071338,-0.0009568,0.00095455,-6.5626e-05,1,-0.071338,-0.99745,2.6365e-06,0.00040075,-0.00043695,-0.00046032,-1.2282e-08,1.676e-07,-0.00012044,-0.0034851,0.0023661,0.001119,-5.0903e-07,7.0256e-06,0.00084127,1,1,58.86,1748.9,0,3000
2.4729e-16,2.4729e-16,-0.51242,-100.27,-103.05,-7.1714,-0.00073131,0.0099792,2.052,101.94,0,0,0,-203.83,10386,5.1479,-103.05,-100.78,0.00049567,-9.6297e-05,1.4633e-05,1,-0.071339,-0.99745,7.7262e-06,0.99745,-0.071339,9.7095e-05,-0.0030844,0.0019292,0.00065869,0.00072082,-5.2131e-07,7.1932e-06,0.0030382,-0.00049652,-6.841e-06,-4.0049e-09,-0.0031101,0.00065869,0.0019549,0.99745,-0.071338,-0.0009568,0.00095455,-6.5626e-05,1,-0.071338,-0.99745,2.6365e-06,0.00040075,-0.00043695,-0.00046032,-1.2282e-08,1.676e-07,-0.00012044,-0.0034851,0.0023661,0.001119,-5.0903e-07,7.0256e-06,0.00084127,1,1,58.92,1748.9,0,3000
2.3357e-16,2.3357e-16,-0.51242,-100.27,-103.05,-7.1714,-0.00073131,0.0099792,2.052,101.94,0,0,0,-203.83,10386,5.1479,-103.05,-100.78,0.00049567,-9.6297e-05,1.4633e-05,1,-0.071339,-0.99745,7.7262e-06,0.99745,-0.071339,9.7095e-05,-0.0030844,0.0019292,0.00065869,0.00072082,-5.2131e-07,7.1932e-06,0.0030382,-0.00049652,-6.841e-06,-4.0049e-09,-0.0031101,0.00065869,0.0019549,0.99745,-0.071338,-0.0009568,0.00095455,-6.5626e-05,1,-0.071338,-0.99745,2.6365e-06,0.00040075,-0.00043695,-0.00046032,-1.2282e-08,1.676e-07,-0.00012044,-0.0034851,0.0023661,0.001119,-5.0903e-07,7.0256e-06,0.00084127,1,1,58.98,1749,0,3000
2.1982e-16,2.1982e-16,-0.57061,-100.41,-103.03,-7.1776,-0.00098659,0.013749,2.378,101.94,0,0,0,-204.01,10410,-595.31,-103.03,-100.93,-0.057251,-0.00013342,1.1081e-05,1,-0.071339,-0.99745,1.5348e-06,0.99745,-0.071339,0.00013387,-0.0030818,0.0019263,0.00065861,0.00072005,-7.3827e-07,1.0342e-05,0.0030352,-0.00049695,-6.8272e-06,-3.9952e-09,-0.0031076,0.00065862,0.001952,0.99745,-0.071338,-0.0013765,0.001373,-9.8743e-05,1,-0.071338,-0.99745,-5.4515e-07,0.00040062,-0.00043781,-0.00045976,-1.657e-08,2.3091e-07,-0.00012055,-0.0034825,0.0023641,0.0011184,-7.217e-07,1.0111e-05,0.00084059,1,1,59.04,1749,0,3000
2.0609e-16,2.0609e-16,-0.57061,-100.41,-103.03,-7.1776,-0.00098659,0.013749,2.378,101.94,0,0,0,-204.01,10410,-595.31,-103.03,-100.93,-0.057251,-0.00013342,1.1081e-05,1,-0.071339,-0.99745,1.5348e-06,0.99745,-0.071339,0.00013387,-0.0030818,0.0019263,0.00065861,0.00072005,-7.3827e-07,1.0342e-05,0.0030352,-0.00049695,-6.8272e-06,-3.9952e-09,-0.0031076,0.00065862,0.001952,0.99745,-0.071338,-0.0013765,0.001373,-9.8743e-05,1,-0.071338,-0.99745,-5.4515e-07,0.00040062,-0.00043781,-0.00045976,-1.657e-08,2.3091e-07,-0.00012055,-0.0034825,0.0023641,0.0011184,-7.217e-07,1.0111e-05,0.00084059,1,1,59.1,1749.1,0,3000
1.9234e-16,1.9234e-16,-0.57061,-100.41,-103.03,-7.1776,-0.00098659,0.013749,2.378,101.94,0,0,0,-204.01,10410,-595.31,-103.03,-100.93,-0.057251,-0.00013342,1.1081e-05,1,-0.071339,-0.99745,1.5348e-06,0.99745,-0.071339,0.00013387,-0.0030818,0.0019263,0.00065861,0.00072005,-7.3827e-07,1.0342e-05,0.0030352,-0.00049695,-6.8272e-06,-3.9952e-09,-0.0031076,0.00065862,0.001952,0.99745,-0.071338,-0.0013765,0.001373,-9.8743e-05,1,-0.071338,-0.99745,-5.4515e-07,0.00040062,-0.00043781,-0.00045976,-1.657e-08,2.3091e-07,-0.00012055,-0.0034825,0.0023641,0.0011184,-7.217e-07,1.0111e-05,0.00084059,1,1,59.16,1749.2,0,3000
1.7861e-16,1.7861e-16,-0.57061,-100.41,-103.03,-7.1776,-0.00098659,0.013749,2.378,101.94,0,0,0,-204.01,10410,-595.31,-103.03,-100.93,-0.057251,-0.00013342,1.1081e-05,1,-0.071339,-0.99745,1.5348e-06,0.99745,-0.071339,0.00013387,-0.0030818,0.0019263,0.00065861,0.00072005,-7.3827e-07,1.0342e-05,0.0030352,-0.00049695,-6.8272e-06,-3.9952e-09,-0.0031076,0.00065862,0.001952,0.99745,-0.071338,-0.0013765,0.001373,-9.8743e-05,1,-0.071338,-0.99745,-5.4515e-07,0.00040062,-0.00043781,-0.00045976,-1.657e-08,2.3091e-07,-0.00012055,-0.0034825,0.0023641,0.0011184,-7.217e-07,1.0111e-05,0.00084059,1,1,59.22,1749.2,0,3000
1.6486e-16,1.6486e-16,-0.57061,-100.41,-103.03,-7.1776,-0.00098659,0.013749,2.378,101.94,0,0,0,-204.01,10410,-595.31,-103.03,-100.93,-0.057251,-0.00013342,1.1081e-05,1,-0.071339,-0.99745,1.5348e-06,0.99745,-0.071339,0.00013387,-0.0030818,0.0019263,0.00065861,0.00072005,-7.3827e-07,1.0342e-05,0.0030352,-0.00049695,-6.8272e-06,-3.9952e-09,-0.0031076,0.00065862,0.001952,0.99745,-0.071338,-0.0013765,0.001373,-9.8743e-05,1,-0.071338,-0.99745,-5.4515e-07,0.00040062,-0.00043781,-0.00045976,-1.657e-08,2.3091e-07,-0.00012055,-0.0034825,0.0023641,0.0011184,-7.217e-07,1.0111e-05,0.00084059,1,1,59.28,1749.3,0,3000
1.5114e-16,1.5114e-16,-0.57061,-100.41,-103.03,-7.1776,-0.00098659,0.013749,2.378,101.94,0,0,0,-204.01,10410,-595.31,-103.03,-100.93,-0.057251,-0.00013342,1.1081e-05,1,-0.071339,-0.99745,1.5348e-06,0.99745,-0.071339,0.00013387,-0.0030818,0.0019263,0.00065861,0.00072005,-7.3827e-07,1.0342e-05,0.0030352,-0.00049695,-6.8272e-06,-3.9952e-09,-0.0031076,0.00065862,0.001952,0.99745,-0.071338,-0.0013765,0.001373,-9.8743e-05,1,-0.071338,-0.99745,-5.4515e-07,0.00040062,-0.00043781,-0.00045976,-1.657e-08,2.3091e-07,-0.00012055,-0.0034825,0.0023641,0.0011184,-7.217e-07,1.0111e-05,0.00084059,1,1,59.34,1749.3,0,3000
1.3738e-16,1.3738e-16,-0.57061,-100.41,-103.03,-7.1776,-0.00098659,0.013749,2.378,101.94,0,0,0,-204.01,10410,-595.31,-103.03,-100.93,-0.057251,-0.00013342,1.1081e-05,1,-0.071339,-0.99745,1.5348e-06,0.99745,-0.071339,0.00013387,-0.0030818,0.0019263,0.00065861,0.00072005,-7.3827e-07,1.0342e-05,0.0030352,-0.00049695,-6.8272e-06,-3.9952e-09,-0.0031076,0.00065862,0.001952,0.99745,-0.071338,-0.0013765,0.001373,-9.8743e-05,1,-0.071338,-0.99745,-5.4515e-07,0.00040062,-0.00043781,-0.00045976,-1.657e-08,2.3091e-07,-0.00012055,-0.0034825,0.0023641,0.0011184,-7.217e-07,1.0111e-05,0.00084059,1,1,59.4,1749.4,0,3000
1.2366e-16,1.2366e-16,-0.57061,-100.41,-103.03,-7.1776,-0.00098659,0.013749,2.378,101.94,0,0,0,-204.01,10410,-595.31,-103.03,-100.93,-0.057251,-0.00013342,1.1081e-05,1,-0.071339,-0.99745,1.5348e-06,0.99745,-0.071339,0.00013387,-0.0030818,0.0019263,0.00065861,0.00072005,-7.3827e-07,1.0342e-05,0.0030352,-0.00049695,-6.8272e-06,-3.9952e-09,-0.0031076,0.00065862,0.001952,0.99745,-0.071338,-0.0013765,0.001373,-9.8743e-05,1,-0.071338,-0.99745,-5.4515e-07,0.00040062,-0.00043781,-0.00045976,-1.657e-08,2.3091e-07,-0.00012055,-0.0034825,0.0023641,0.0011184,-7.217e-07,1.0111e-05,0.00084059,1,1,59.46,1749.5,0,3000
1.0991e-16,1.0991e-16,-0.57061,-100.41,-103.03,-7.1776,-0.00098659,0.013749,2.378,101.94,0,0,0,-204.01,10410,-595.31,-103.03,-100.93,-0.057251,-0.00013342,1.1081e-05,1,-0.071339,-0.99745,1.5348e-06,0.99745,-0.071339,0.00013387,-0.0030818,0.0019263,0.00065861,0.00072005,-7.3827e-07,1.0342e-05,0.0030352,-0.00049695,-6.8272e-06,-3.9952e-09,-0.0031076,0.00065862,0.001952,0.99745,-0.071338,-0.0013765,0.001373,-9.8743e-05,1,-0.071338,-0.99745,-5.4515e-07,0.00040062,-0.00043781,-0.00045976,-1.657e-08,2.3091e-07,-0.00012055,-0.0034825,0.0023641,0.0011184,-7.217e-07,1.0111e-05,0.00084059,1,1,59.52,1749.5,0,3000
9.6183e-17,9.6183e-17,-0.57061,-100.41,-103.03,-7.1776,-0.00098659,0.013749,2.378,101.94,0,0,0,-204.01,10410,-595.31,-103.03,-100.93,-0.057251,-0.00013342,1.1081e-05,1,-0.071339,-0.99745,1.5348e-06,0.99745,-0.071339,0.00013387,-0.0030818,0.0019263,0.00065861,0.00072005,-7.3827e-07,1.0342e-05,0.0030352,-0.00049695,-6.8272e-06,-3.9952e-09,-0.0031076,0.00065862,0.001952,0.99745,-0.071338,-0.0013765,0.001373,-9.8743e-05,1,-0.071338,-0.99745,-5.4515e-07,0.00040062,-0.00043781,-0.00045976,-1.657e-08,2.3091e-07,-0.00012055,-0.0034825,0.0023641,0.0011184,-7.217e-07,1.0111e-05,0.00084059,1,1,59.58,1749.6,0,3000
8.2431e-17,8.2431e-17,-0.57061,-100.41,-103.03,-7.1776,-0.00098659,0.013749,2.378,101.94,0,0,0,-204.01,10410,-595.31,-103.03,-100.93,-0.057251,-0.00013342,1.1081e-05,1,-0.071339,-0.99745,1.5348e-06,0.99745,-0.071339,0.00013387,-0.0030818,0.0019263,0.00065861,0.00072005,-7.3827e-07,1.0342e-05,0.0030352,-0.00049695,-6.8272e-06,-3.9952e-09,-0.0031076,0.00065862,0.001952,0.99745,-0.071338,-0.0013765,0.001373,-9.8743e-05,1,-0.071338,-0.99745,-5.4515e-07,0.00040062,-0.00043781,-0.00045976,-1.657e-08,2.3091e-07,-0.00012055,-0.0034825,0.0023641,0.0011184,-7.217e-07,1.0111e-05,0.00084059,1,1,59.64,1749.6,0,3000
6.8706e-17,6.8706e-17,-0.57061,-100.41,-103.03,-7.1776,-0.00098659,0.013749,2.378,101.94,0,0,0,-204.01,10410,-595.31,-103.03,-100.93,-0.057251,-0.00013342,1.1081e-05,1,-0.071339,-0.99745,1.5348e-06,0.99745,-0.071339,0.00013387,-0.0030818,0.0019263,0.00065861,0.00072005,-7.3827e-07,1.0342e-05,0.0030352,-0.00049695,-6.8272e-06,-3.9952e-09,-0.0031076,0.00065862,0.001952,0.99745,-0.071338,-0.0013765,0.001373,-9.8743e-05,1,-0.071338,-0.99745,-5.4515e-07,0.00040062,-0.00043781,-0.00045976,-1.657e-08,2.3091e-07,-0.00012055,-0.0034825,0.0023641,0.0011184,-7.217e-07,1.0111e-05,0.00084059,1,1,59.7,1749.7,0,3000
5.4954e-17,5.4954e-17,-0.57061,-100.41,-103.03,-7.1776,-0.00098659,0.013749,2.378,101.94,0,0,0,-204.01,10410,-595.31,-103.03,-100.93,-0.057251,-0.00013342,1.1081e-05,1,-0.071339,-0.99745,1.5348e-06,0.99745,-0.071339,0.00013387,-0.0030818,0.0019263,0.00065861,0.00072005,-7.3827e-07,1.0342e-05,0.0030352,-0.00049695,-6.8272e-06,-3.9952e-09,-0.0031076,0.00065862,0.001952,0.99745,-0.071338,-0.0013765,0.001373,-9.8743e-05,1,-0.071338,-0.99745,-5.4515e-07,0.00040062,-0.00043781,-0.00045976,-1.657e-08,2.3091e-07,-0.00012055,-0.0034825,0.0023641,0.0011184,-7.217e-07,1.0111e-05,0.00084059,1,1,59.76,1749.8,0,3000
4.1229e-17,4.1229e-17,-0.57061,-100.41,-103.03,-7.1776,-0.00098659,0.013749,2.378,101.94,0,0,0,-204.01,10410,-595.31,-103.03,-100.93,-0.057251,-0.00013342,1.1081e-05,1,-0.071339,-0.99745,1.5348e-06,0.99745,-0.071339,0.00013387,-0.0030818,0.0019263,0.00065861,0.00072005,-7.3827e-07,1.0342e-05,0.0030352,-0.00049695,-6.8272e-06,-3.9952e-09,-0.0031076,0.00065862,0.001952,0.99745,-0.071338,-0.0013765,0.001373,-9.8743e-05,1,-0.071338,-0.99745,-5.4515e-07,0.00040062,-0.00043781,-0.00045976,-1.657e-08,2.3091e-07,-0.00012055,-0.0034825,0.0023641,0.0011184,-7.217e-07,1.0111e-05,0.00084059,1,1,59.82,1749.8,0,3000
2.7477e-17,2.7477e-17,-0.57061,-100.41,-103.03,-7.1776,-0.00098659,0.013749,2.378,101.94,0,0,0,-204.01,10410,-595.31,-103.03,-100.93,-0.057251,-0.00013342,1.1081e-05,1,-0.071339,-0.99745,1.5348e-06,0.99745,-0.071339,0.00013387,-0.0030818,0.0019263,0.00065861,0.00072005,-7.3827e-07,1.0342e-05,0.0030352,-0.00049695,-6.8272e-06,-3.9952e-09,-0.0031076,0.00065862,0.001952,0.99745,-0.071338,-0.0013765,0.001373,-9.8743e-05,1,-0.071338,-0.99745,-5.4515e-07,0.00040062,-0.00043781,-0.00045976,-1.657e-08,2.3091e-07,-0.00012055,-0.0034825,0.0023641,0.0011184,-7.217e-07,1.0111e-05,0.00084059,1,1,59.88,1749.9,0,3000
1.3752e-17,1.3752e-17,-0.57061,-100.41,-103.03,-7.1776,-0.00098659,0.013749,2.378,101.94,0,0,0,-204.01,10410,-595.31,-103.03,-100.93,-0.057251,-0.00013342,1.1081e-05,1,-0.071339,-0.99745,1.5348e-06,0.99745,-0.071339,0.00013387,-0.0030818,0.0019263,0.00065861,0.00072005,-7.3827e-07,1.0342e-05,0.0030352,-0.00049695,-6.8272e-06,-3.9952e-09,-0.0031076,0.00065862,0.001952,0.99745,-0.071338,-0.0013765,0.001373,-9.8743e-05,1,-0.071338,-0.99745,-5.4515e-07,0.00040062,-0.00043781,-0.00045976,-1.657e-08,2.3091e-07,-0.00012055,-0.0034825,0.0023641,0.0011184,-7.217e-07,1.0111e-05,0.00084059,1,1,59.94,1749.9,0,3000
-1.0067e-29,-1.0067e-29,-0.57061,-100.41,-103.03,-7.1776,-0.00098659,0.013749,2.378,101.94,0,0,0,-204.01,10410,-595.31,-103.03,-100.93,-0.057251,-0.00013342,1.1081e-05,1,-0.071339,-0.99745,1.5348e-06,0.99745,-0.071339,0.00013387,-0.0030818,0.0019263,0.00065861,0.00072005,-7.3827e-07,1.0342e-05,0.0030352,-0.00049695,-6.8272e-06,-3.9952e-09,-0.0031076,0.00065862,0.001952,0.99745,-0.071338,-0.0013765,0.001373,-9.8743e-05,1,-0.071338,-0.99745,-5.4515e-07,0.00040062,-0.00043781,-0.00045976,-1.657e-08,2.3091e-07,-0.00012055,-0.0034825,0.0023641,0.0011184,-7.217e-07,1.0111e-05,0.00084059,1,1,60,1750,0,3000
