time,temperature,strain_11,strain_22,strain_33,strain_23,strain_13,strain_12,stress_11,stress_22,stress_33,stress_23,stress_13,stress_12
0.000000000000000000e+00,3.000000000000000000e+02,0.000000000000000000e+00,0.000000000000000000e+00,0.000000000000000000e+00,0.000000000000000000e+00,0.000000000000000000e+00,0.000000000000000000e+00,0.000000000000000000e+00,0.000000000000000000e+00,0.000000000000000000e+00,0.000000000000000000e+00,0.000000000000000000e+00,0.000000000000000000e+00
1.000000000000000000e+01,3.000000000000000000e+02,1.000000000000000021e-03,-4.949986956995353808e-04,-1.929613045487011292e-04,-1.513016210537266684e-45,-6.000716647522482236e-25,-1.895978966364335123e-20,1.017977813513828522e+02,8.609738758280595025e-09,3.456711322702757474e-11,3.215881601768943126e-40,-2.326356782844532578e-20,-6.246999309299606955e-16
2.000000000000000000e+01,3.000000000000000000e+02,2.000000000000000042e-03,-1.329488649339633259e-03,-2.565773839552353019e-04,-1.932360031971045559e-42,2.509639322562923356e-24,-4.836078070619616494e-19,1.350389676674299722e+02,8.580177276644131894e-09,1.159866781442602342e-10,1.113668012355497332e-37,-3.118435238828362205e-19,-5.804513981701205165e-16
3.000000000000000000e+01,3.000000000000000000e+02,3.000000000000000062e-03,-2.309047313296551298e-03,-2.649220295762535105e-04,6.310632284920279994e-42,8.027593323688455661e-24,-5.889298386875823252e-19,1.389853036584177346e+02,-3.663673953363536829e-06,8.337153289485034623e-06,1.029798201504390254e-36,9.953194520232534551e-20,7.652484547133380469e-16
4.000000000000000000e+01,3.000000000000000000e+02,4.000000000000000083e-03,-3.306153877485488394e-03,-2.665803375660987570e-04,-1.576570003301233337e-41,6.463343727307685873e-24,-7.403350799227290338e-19,1.393882432555353148e+02,-3.663944450108110912e-06,8.337755787584258605e-06,1.055555079085095554e-38,7.860939712961063571e-19,1.210218602496306106e-14
5.000000000000000000e+01,3.000000000000000000e+02,5.000000000000000104e-03,-4.305056265251554042e-03,-2.675537708493961058e-04,4.807497954317717270e-41,-1.654866295826494801e-23,-9.041982262106834276e-19,1.394287545415132570e+02,-3.663944461379264092e-06,8.337755848688930817e-06,3.690279811751301354e-36,-1.116582988241463441e-18,1.226713708269653061e-14
6.000000000000000000e+01,3.000000000000000000e+02,6.000000000000000125e-03,-5.304140155289764277e-03,-2.684573845694719109e-04,4.436217105797682883e-41,3.370479208371708738e-24,-1.095746624568827461e-18,1.394328312293827992e+02,-3.663944435277268737e-06,8.337755863941703820e-06,1.992085967623135047e-36,8.647921635472609679e-20,1.191005197689900669e-14
7.000000000000000000e+01,3.000000000000000000e+02,7.000000000000000146e-03,-6.303243230748814194e-03,-2.693530206512047666e-04,4.437014268116244628e-41,-3.060910980267113945e-24,-5.536282824423259889e-19,1.394332515674479112e+02,-3.663944336495610919e-06,8.337755628691030237e-06,1.992090541554771144e-36,8.647921598994526345e-20,1.191005197846460528e-14
8.000000000000000000e+01,3.000000000000000000e+02,8.000000000000000167e-03,-7.302349199957515469e-03,-2.702468876474440739e-04,4.435093444298754269e-41,4.989793782811722253e-24,-1.152681324056744481e-20,1.394333050028208447e+02,-3.663944365776411658e-06,8.337755548959203966e-06,1.992090541545970732e-36,8.647921607052932603e-20,1.191005197838757459e-14
9.000000000000000000e+01,3.000000000000000000e+02,9.000000000000001055e-03,-8.301456427363724730e-03,-2.711396093015995654e-04,4.436033624748380142e-41,-6.802220405049974268e-24,5.983352500586198720e-19,1.394333216210173418e+02,-3.663944255118621777e-06,8.337755572222858830e-06,1.992090528106573089e-36,8.647921568259059345e-20,1.191005197846765186e-14
1.000000000000000000e+02,3.000000000000000000e+02,1.000000000000000194e-02,-9.300564747794648132e-03,-2.720312492928864622e-04,4.435461056977814130e-41,-2.229093623914674271e-23,1.140433560583559882e-18,1.394333345326034816e+02,-3.663944308508694512e-06,8.337755514834071030e-06,1.992089449478963770e-36,8.647921530243489284e-20,1.191005197843648397e-14
1.100000000000000000e+02,3.000000000000000000e+02,1.100000000000000283e-02,-1.029967414336589553e-02,-2.729218153302274573e-04,4.435520761089938244e-41,-3.072305745819689249e-24,1.614768425920100432e-18,1.394333470571536679e+02,-3.663944237605397359e-06,8.337755520662240466e-06,1.992090463946555203e-36,8.647921529812574496e-20,1.191005197838317590e-14
1.200000000000000000e+02,3.000000000000000000e+02,1.200000000000000372e-02,-1.129878461078518900e-02,-2.738113096916267790e-04,4.434749289403855195e-41,-1.224727348281146246e-24,2.156864992351093538e-18,1.394333595255575631e+02,-3.663944032359424706e-06,8.337755603382878395e-06,1.992090328721899202e-36,8.647921556390719489e-20,1.191005197834582019e-14
1.300000000000000000e+02,3.000000000000000000e+02,1.300000000000000461e-02,-1.229789614806371667e-02,-2.746997342699065352e-04,4.435573538593596848e-41,5.795248984442553526e-24,2.631198024172142316e-18,1.394333719691306328e+02,-3.663943983053677504e-06,8.337755599694241339e-06,1.992090429982990335e-36,8.647921543929142654e-20,1.191005197834978973e-14
1.400000000000000000e+02,3.000000000000000000e+02,1.400000000000000550e-02,-1.329700875320479619e-02,-2.755870910571021144e-04,4.434712601540411571e-41,1.900345847413322662e-23,3.173292867719221092e-18,1.394333843893886353e+02,-3.663944104196579919e-06,8.337755506417738214e-06,1.992090548127254920e-36,8.647921527332780804e-20,1.191005197830699087e-14
1.500000000000000000e+02,3.000000000000000000e+02,1.500000000000000638e-02,-1.429612242409149421e-02,-2.764733821739751994e-04,4.435794495978813317e-41,1.073407619881200620e-23,3.105523538552927671e-18,1.394333967850825218e+02,-3.663944119604203673e-06,8.337755459517906783e-06,1.992091393217760246e-36,8.647921531576708270e-20,1.191005197830595747e-14
1.600000000000000000e+02,3.000000000000000000e+02,1.600000000000000727e-02,-1.529523715849210111e-02,-2.773586098563136254e-04,4.434920840977809359e-41,3.538009284019170027e-24,3.579855029827165291e-18,1.394334091548818719e+02,-3.663944098779951181e-06,8.337755436916413149e-06,1.992090473236229382e-36,8.647921561633139316e-20,1.191005197829843489e-14
1.700000000000000000e+02,3.000000000000000000e+02,1.700000000000000816e-02,-1.629435295407529599e-02,-2.782427764390165391e-04,4.434835886590085332e-41,-2.079953500339558646e-23,4.121948317653356359e-18,1.394334214976193778e+02,-3.663944172599707709e-06,8.337755370729580523e-06,1.992090609027284316e-36,8.647921548951528597e-20,1.191005197835079001e-14
1.800000000000000000e+02,3.000000000000000000e+02,1.800000000000000905e-02,-1.729346980842442344e-02,-2.791258843418088970e-04,4.434945096715898303e-41,-2.300651054856772545e-23,4.054177437987882837e-18,1.394334338122938561e+02,-3.663944182203254609e-06,8.337755333939099177e-06,1.992095613854033023e-36,8.647921549268481295e-20,1.191005197835531807e-14
1.900000000000000000e+02,3.000000000000000000e+02,1.900000000000000994e-02,-1.829258771905005465e-02,-2.800079360567367653e-04,4.434464640847874776e-41,-1.850322633379521985e-23,4.460744757251946487e-18,1.394334460980511494e+02,-3.663944175764576436e-06,8.337755305657965028e-06,1.992096631232997229e-36,8.647921561599847210e-20,1.191005197837092016e-14
2.000000000000000000e+02,3.000000000000000000e+02,2.000000000000001082e-02,-1.929170668340095957e-02,-2.808889341372533066e-04,4.433454370939592694e-41,-5.574818745878231874e-24,5.002836636467563224e-18,1.394334583541657935e+02,-3.663943979855004539e-06,8.337755380598586702e-06,1.992096685364045530e-36,8.647921568832118596e-20,1.191005197836874922e-14
2.100000000000000000e+02,3.000000000000000000e+02,2.100000000000001171e-02,-2.029082669887368254e-02,-2.817688811886981306e-04,4.433788892978514825e-41,-1.017489421416171344e-23,5.544927598681074394e-18,1.394334705800239931e+02,-3.663944068181003276e-06,8.337755304909204843e-06,1.992096785480250215e-36,8.647921568175540189e-20,1.191005197836890383e-14
2.200000000000000000e+02,3.000000000000000000e+02,2.200000000000001260e-02,-2.128994776282087942e-02,-2.826477798599930633e-04,4.433390935428184486e-41,-1.715145504291306516e-23,5.477154401275441578e-18,1.394334827751105195e+02,-3.663944086270208404e-06,8.337755263069660048e-06,1.992092037953180311e-36,8.647921551064035412e-20,1.191005197828859779e-14
2.300000000000000000e+02,3.000000000000000000e+02,2.300000000000001349e-02,-2.228906987255860686e-02,-2.835256328364007075e-04,4.433954110889632226e-41,-3.816301230578475549e-23,6.019244764717136594e-18,1.394334949389950395e+02,-3.663944200112814214e-06,8.337755173457121603e-06,1.992092114171917755e-36,8.647921563692565095e-20,1.191005197832297162e-14
2.400000000000000000e+02,3.000000000000000000e+02,2.400000000000001438e-02,-2.328819302537266447e-02,-2.844024428332110241e-04,4.432820039813399035e-41,-3.675596166514112324e-23,6.561334300099152215e-18,1.394335070713220261e+02,-3.663944156998202771e-06,8.337755166115341560e-06,1.992091777730207536e-36,8.647921565205993345e-20,1.191005197832325561e-14
2.500000000000000000e+02,3.000000000000000000e+02,2.500000000000001527e-02,-2.428731721852412859e-02,-2.852782125902379772e-04,4.433010438384663482e-41,-5.887418705802767527e-23,7.103422958402724890e-18,1.394335191718006683e+02,-3.663943854705089101e-06,8.337755301489612557e-06,1.992096449122538977e-36,8.647921554815301572e-20,1.191005197831849562e-14
2.600000000000000000e+02,3.000000000000000000e+02,2.600000000000001615e-02,-2.528644244925417825e-02,-2.861529448670242152e-04,4.432764679175321725e-41,-4.104488170874011058e-23,7.713273395478776048e-18,1.394335312401961744e+02,-3.663943676959358217e-06,8.337755367779849271e-06,1.992096922670385887e-36,8.647921539707275512e-20,1.191005197827594131e-14
2.700000000000000000e+02,3.000000000000000000e+02,2.700000000000001704e-02,-2.628556871478828980e-02,-2.870266424386631529e-04,4.433343999365925325e-41,-4.159809242697619152e-23,8.187597586524801622e-18,1.394335432763230074e+02,-3.663943983519868768e-06,8.337755176831158763e-06,1.992097031748686699e-36,8.647921555954667283e-20,1.191005197836448148e-14
2.800000000000000000e+02,3.000000000000000000e+02,2.800000000000001793e-02,-2.728469601233988670e-02,-2.878993080921613099e-04,4.433017494166973958e-41,-5.192481253682119081e-23,8.729683661885503849e-18,1.394335552800397693e+02,-3.663943843127174469e-06,8.337755220761983860e-06,1.992096653004514344e-36,8.647921571918624758e-20,1.191005197839341532e-14
2.900000000000000000e+02,3.000000000000000000e+02,2.900000000000001882e-02,-2.828382433911354188e-02,-2.887709446232712479e-04,4.432593397753873651e-41,-3.398227058657828875e-23,9.271768817912142933e-18,1.394335672512410156e+02,-3.663943775432136576e-06,8.337755223885566931e-06,1.992096649118153087e-36,8.647921556611003745e-20,1.191005197827763736e-14
3.000000000000000000e+02,3.000000000000000000e+02,3.000000000000001971e-02,-2.928295369230773243e-02,-2.896415548337361251e-04,4.431681022623402136e-41,-3.587340466093429547e-23,9.813853208527175501e-18,1.394335791898545551e+02,-3.663943489740463790e-06,8.337755354026897179e-06,1.992096723545493705e-36,8.647921566019418283e-20,1.191005197830809370e-14
3.100000000000000000e+02,3.000000000000000000e+02,3.100000000000002059e-02,-3.028208406911725784e-02,-2.905111415288936095e-04,4.431927417148293538e-41,-5.498236168073712147e-23,1.035593665116081677e-17,1.394335910958358227e+02,-3.663943276969498291e-06,8.337755440870537436e-06,1.992096784920497779e-36,8.647921561971159281e-20,1.191005197827774307e-14
3.200000000000000000e+02,3.000000000000000000e+02,3.200000000000002148e-02,-3.128121546673533204e-02,-2.913797075155933431e-04,4.430843767072328253e-41,-4.650155101850849672e-23,1.089801919854561255e-17,1.394336029691647809e+02,-3.663943555973552038e-06,8.337755259693893246e-06,1.992097152210650228e-36,8.647921535043940689e-20,1.191005197827780933e-14
3.300000000000000000e+02,3.000000000000000000e+02,3.300000000000002237e-02,-3.228034788235539104e-02,-2.922472556003879508e-04,4.429748638228095599e-41,-2.775928653465000685e-23,1.130457573071469878e-17,1.394336148098437889e+02,-3.663943491778754133e-06,8.337755264682317606e-06,1.992097778005947477e-36,8.647921524501177488e-20,1.191005197828882025e-14
3.400000000000000000e+02,3.000000000000000000e+02,3.400000000000002326e-02,-3.327948131317268882e-02,-2.931137885879639827e-04,4.429932887723259398e-41,-4.791790271889761193e-23,1.184665692554000744e-17,1.394336266178927985e+02,-3.663943353601427497e-06,8.337755314780160893e-06,1.992097778001923629e-36,8.647921539375272875e-20,1.191005197831655502e-14
3.500000000000000000e+02,3.000000000000000000e+02,3.500000000000002415e-02,-3.427861575638565389e-02,-2.939793092797806989e-04,4.431132569108677139e-41,-7.218617611402534414e-23,1.238873723058124753e-17,1.394336383933481898e+02,-3.663942890931132016e-06,8.337755536702693123e-06,1.992097297563225906e-36,8.647921542415672274e-20,1.191005197838346778e-14
3.600000000000000000e+02,3.000000000000000000e+02,3.600000000000002504e-02,-3.527775120919708629e-02,-2.948438204728917036e-04,4.429945588079084090e-41,-9.569802233645490273e-23,1.279529142676345888e-17,1.394336501362591605e+02,-3.663943076054904847e-06,8.337755407308911803e-06,1.992099125891854439e-36,8.647921544829658144e-20,1.191005197831956058e-14
3.700000000000000000e+02,3.000000000000000000e+02,3.700000000000002592e-02,-3.627688766881516369e-02,-2.957073249589249825e-04,4.430318089100149022e-41,-1.063726816763518389e-22,1.326960760432091135e-17,1.394336618466881248e+02,-3.663943518930574829e-06,8.337755142678253311e-06,1.992098469585535135e-36,8.647921557532927150e-20,1.191005197827245454e-14
3.800000000000000000e+02,3.000000000000000000e+02,3.800000000000002681e-02,-3.727602513245433652e-02,-2.965698255232027472e-04,4.429937470980476883e-41,-1.128735538135805097e-22,1.381168561647653485e-17,1.394336735247084107e+02,-3.663943390318608730e-06,8.337755189805350458e-06,1.992098470106070428e-36,8.647921544005975222e-20,1.191005197827244350e-14
3.900000000000000000e+02,3.000000000000000000e+02,3.900000000000002770e-02,-3.827516359733610513e-02,-2.974313249439818974e-04,4.430723672232520282e-41,-1.376145302501629308e-22,1.442152528416792340e-17,1.394336851704005653e+02,-3.663943678745175990e-06,8.337755002238410193e-06,1.992097594108204113e-36,8.647921534822922173e-20,1.191005197827942492e-14
4.000000000000000000e+02,3.000000000000000000e+02,4.000000000000002859e-02,-3.927430306068965121e-02,-2.982918259917996507e-04,4.429917501510826814e-41,-1.423837985432773303e-22,1.496360151894382085e-17,1.394336967838546570e+02,-3.663943374870961398e-06,8.337755137422225832e-06,1.992097594993515327e-36,8.647921531022428039e-20,1.191005197828636532e-14
4.100000000000000000e+02,3.000000000000000000e+02,4.100000000000002948e-02,-4.027344351975242764e-02,-2.991513314289130643e-04,4.430708539461717779e-41,-1.353510884521899691e-22,1.557343960966371045e-17,1.394337083651660691e+02,-3.663942960132924207e-06,8.337755335940983620e-06,1.992097594988781193e-36,8.647921524991415733e-20,1.191005197824533824e-14
4.200000000000000000e+02,3.000000000000000000e+02,4.200000000000003036e-02,-4.127258497177063029e-02,-3.000098440088175408e-04,4.430740448525900130e-41,-1.275369508625972244e-22,1.604775158625739790e-17,1.394337199144360682e+02,-3.663942627073028559e-06,8.337755493878919760e-06,1.992097542184950336e-36,8.647921523293060893e-20,1.191005197821201833e-14
4.300000000000000000e+02,3.000000000000000000e+02,4.300000000000003125e-02,-4.227172741399960743e-02,-3.008673664758364035e-04,4.430318526340212558e-41,-1.221885921361676723e-22,1.652206277143338640e-17,1.394337314317711218e+02,-3.663942196861885614e-06,8.337755700187001002e-06,1.992096154848972775e-36,8.647921526241832972e-20,1.191005197821238279e-14
4.400000000000000000e+02,3.000000000000000000e+02,4.400000000000003214e-02,-4.327087084370422054e-02,-3.017239015647716748e-04,4.430772378026347593e-41,-1.196050209689061577e-22,1.706413580223457029e-17,1.394337429172815916e+02,-3.663941801867725638e-06,8.337755889322969851e-06,1.992096727989248349e-36,8.647921527124332591e-20,1.191005197821044692e-14
4.500000000000000000e+02,3.000000000000000000e+02,4.500000000000003303e-02,-4.427001525815913580e-02,-3.025794520006080349e-04,4.430206420713383770e-41,-1.049199888361014238e-22,1.753844536092800780e-17,1.394337543710813065e+02,-3.663941525884050349e-06,8.337756012362121960e-06,1.992096735411138421e-36,8.647921533423233326e-20,1.191005197817740785e-14
4.600000000000000000e+02,3.000000000000000000e+02,4.600000000000003392e-02,-4.526916065464907379e-02,-3.034340204982637263e-04,4.429337651630954096e-41,-1.015225686481717293e-22,1.801275422993905126e-17,1.394337657932875061e+02,-3.663940997530544739e-06,8.337756270517384671e-06,1.992099815083252994e-36,8.647921528471207624e-20,1.191005197810684582e-14
4.700000000000000000e+02,3.000000000000000000e+02,4.700000000000003481e-02,-4.626830703046903165e-02,-3.042876097623821159e-04,4.429776686987572389e-41,-9.164816905659779035e-23,1.801272431676547593e-17,1.394337771840188225e+02,-3.663941029630839486e-06,8.337756229803685575e-06,1.992111985516745328e-36,8.647921534922917659e-20,1.191005197817654483e-14
4.800000000000000000e+02,3.000000000000000000e+02,4.800000000000003569e-02,-4.726745438292444257e-02,-3.051402224871580600e-04,4.429658370747244790e-41,-1.018595673282715055e-22,1.855479528218034387e-17,1.394337885433965312e+02,-3.663941659082440665e-06,8.337755869331584527e-06,1.992112625578010748e-36,8.647921532770989465e-20,1.191005197821172803e-14
4.900000000000000000e+02,3.000000000000000000e+02,4.900000000000003658e-02,-4.826660270933131464e-02,-3.059918613561961992e-04,4.429610799740232331e-41,-1.231101283698484086e-22,1.902910273407036045e-17,1.394337998715451192e+02,-3.663941501219682511e-06,8.337755935164218468e-06,1.992111438885006277e-36,8.647921536133883427e-20,1.191005197824471977e-14
5.000000000000000000e+02,3.000000000000000000e+02,5.000000000000003747e-02,-4.926575200701637652e-02,-3.068425290423954909e-04,4.428340549242915766e-41,-1.291958701145573259e-22,1.950340945322754460e-17,1.394338111685877095e+02,-3.663941944256352280e-06,8.337755666141880492e-06,1.992111814686459675e-36,8.647921536020017633e-20,1.191005197827716878e-14
5.100000000000000000e+02,3.000000000000000000e+02,5.100000000000003836e-02,-5.026490227331713301e-02,-3.076922282078566723e-04,4.428531216667681198e-41,-1.284419544536918373e-22,2.011324058385981352e-17,1.394338224346511481e+02,-3.663941662890406452e-06,8.337755798060802554e-06,1.992111960327419650e-36,8.647921528976795530e-20,1.191005197823654244e-14
5.200000000000000000e+02,3.000000000000000000e+02,5.200000000000003925e-02,-5.126405350558196905e-02,-3.085409615038114625e-04,4.427318434629719878e-41,-1.323743282174270928e-22,2.065530825430361449e-17,1.394338336698614285e+02,-3.663941070256758439e-06,8.337756094309737293e-06,1.992112159632309839e-36,8.647921520316975517e-20,1.191005197816813873e-14
5.300000000000000000e+02,3.000000000000000000e+02,5.300000000000004013e-02,-5.226320570117019143e-02,-3.093887315705683518e-04,4.427349669090165773e-41,-1.405361220342955759e-22,2.112961256146438679e-17,1.394338448743447998e+02,-3.663941016712966588e-06,8.337756092714252481e-06,1.992112324112894004e-36,8.647921528943398701e-20,1.191005197816033217e-14
5.400000000000000000e+02,3.000000000000000000e+02,5.400000000000004102e-02,-5.326235885745205650e-02,-3.102355410374739507e-04,4.427167926094623369e-41,-1.253088760161399967e-22,2.160391614235384012e-17,1.394338560482296714e+02,-3.663940515107014871e-06,8.337756334776709122e-06,1.992112320476157278e-36,8.647921524288795564e-20,1.191005197808767965e-14
5.500000000000000000e+02,3.000000000000000000e+02,5.500000000000004191e-02,-5.426151297180881877e-02,-3.110813925228885944e-04,4.427131663936372340e-41,-1.321881400428686376e-22,2.207821890458139875e-17,1.394338671916432020e+02,-3.663940384826280363e-06,8.337756387065497994e-06,1.992112293095574807e-36,8.647921528546101021e-20,1.191005197804685137e-14
5.600000000000000000e+02,3.000000000000000000e+02,5.600000000000004280e-02,-5.526066804163272395e-02,-3.119262886341724115e-04,4.427547430188802791e-41,-1.485482679418399553e-22,2.255252084986815073e-17,1.394338783047133461e+02,-3.663940531064552743e-06,8.337756284912040453e-06,1.992112381892779640e-36,8.647921538622322137e-20,1.191005197805016616e-14
5.700000000000000000e+02,3.000000000000000000e+02,5.700000000000004369e-02,-5.625982406432702282e-02,-3.127702319676824508e-04,4.426735296972149554e-41,-1.541623985269770152e-22,2.309458461624525130e-17,1.394338893875683141e+02,-3.663940833893052647e-06,8.337756101945275139e-06,1.992112336032382901e-36,8.647921530785152266e-20,1.191005197808876355e-14
5.800000000000000000e+02,3.000000000000000000e+02,5.800000000000004458e-02,-5.725898103730595740e-02,-3.136132251087779934e-04,4.427059189914751027e-41,-1.713356269692555945e-22,2.350112237881356483e-17,1.394339004403366573e+02,-3.663940644361300876e-06,8.337756179828113189e-06,1.992112350495906137e-36,8.647921543776430854e-20,1.191005197802675593e-14
5.900000000000000000e+02,3.000000000000000000e+02,5.900000000000004546e-02,-5.825813895799476783e-02,-3.144552706318338347e-04,4.427674359978410306e-41,-1.831897722502135083e-22,2.390765942335780433e-17,1.394339114631455629e+02,-3.663940696561425304e-06,8.337756132728404006e-06,1.992112568135944530e-36,8.647921558579188592e-20,1.191005197805415149e-14
6.000000000000000000e+02,3.000000000000000000e+02,6.000000000000004635e-02,-5.925729782382965077e-02,-3.152963711002598540e-04,4.427882293134058929e-41,-1.836818853307220003e-22,2.438195843366524229e-17,1.394339224561228434e+02,-3.663940748353554290e-06,8.337756077801995193e-06,1.992113770245382014e-36,8.647921541957121595e-20,1.191005197810290467e-14
6.100000000000000000e+02,3.000000000000000000e+02,6.100000000000004724e-02,-6.025645763225774554e-02,-3.161365290665262224e-04,4.427834880511355712e-41,-1.946784913161720327e-22,2.424639337137013419e-17,1.394339334193958564e+02,-3.663940780591148842e-06,8.337756040259631499e-06,1.992118436151183668e-36,8.647921554477043274e-20,1.191005197809904241e-14
6.200000000000000000e+02,3.000000000000000000e+02,6.200000000000004813e-02,-6.125561838073710630e-02,-3.169757470721938685e-04,4.426523268777951677e-41,-2.002385060908700802e-22,2.465292918956686747e-17,1.394339443530909648e+02,-3.663941425637291501e-06,8.337755667508840897e-06,1.992118422331714206e-36,8.647921559891676145e-20,1.191005197806442246e-14
6.300000000000000000e+02,3.000000000000000000e+02,6.300000000000004208e-02,-6.225478006673663967e-02,-3.178140276479485770e-04,4.425211005327040606e-41,-1.800970748797553282e-22,2.512722680406877169e-17,1.394339552573363221e+02,-3.663940956389267224e-06,8.337755895581298193e-06,1.992118877019455863e-36,8.647921554659053283e-20,1.191005197809316066e-14
6.400000000000000000e+02,3.000000000000000000e+02,6.400000000000004297e-02,-6.325394268773612549e-02,-3.186513733136399655e-04,4.425396842434272410e-41,-1.679300118400256830e-22,2.560152356934418981e-17,1.394339661322580355e+02,-3.663939664202590028e-06,8.337756567249749912e-06,1.992119032520178368e-36,8.647921561449897915e-20,1.191005197815586248e-14
6.500000000000000000e+02,3.000000000000000000e+02,6.500000000000004385e-02,-6.425310624122614056e-02,-3.194877865783212205e-04,4.424045750732631484e-41,-1.688781161661187908e-22,2.600805694351184660e-17,1.394339769779787446e+02,-3.663940512357838574e-06,8.337756090829837955e-06,1.992119245924944782e-36,8.647921564209496729e-20,1.191005197812158332e-14
6.600000000000000000e+02,3.000000000000000000e+02,6.600000000000004474e-02,-6.525227072470798917e-02,-3.203232699402937126e-04,4.425171452610156066e-41,-1.682259613972675434e-22,2.587248893641561318e-17,1.394339877946249260e+02,-3.663942048733295735e-06,8.337755247501904291e-06,1.992120856989696151e-36,8.647921563036014373e-20,1.191005197815942813e-14
6.700000000000000000e+02,3.000000000000000000e+02,6.700000000000004563e-02,-6.625143613569367540e-02,-3.211578258871534541e-04,4.424093414133757604e-41,-1.645490743171482601e-22,2.634678444567214915e-17,1.394339985823236532e+02,-3.663941806586914223e-06,8.337755352041533266e-06,1.992120805024655035e-36,8.647921558441981732e-20,1.191005197825748196e-14
6.800000000000000000e+02,3.000000000000000000e+02,6.800000000000004652e-02,-6.725060247170588923e-02,-3.219914568958384248e-04,4.424538729986110570e-41,-1.700462138598177876e-22,2.675331655637301683e-17,1.394340093411978216e+02,-3.663941013100193615e-06,8.337755757070552284e-06,1.992121100738643631e-36,8.647921555760182062e-20,1.191005197826339369e-14
6.900000000000000000e+02,3.000000000000000000e+02,6.900000000000004741e-02,-6.824976973027792326e-02,-3.228241654326784995e-04,4.425582903468626516e-41,-1.693227342275163483e-22,2.722761064359128474e-17,1.394340200713709237e+02,-3.663939723101449956e-06,8.337756425704328898e-06,1.992122277331441987e-36,8.647921541963288182e-20,1.191005197828650731e-14
7.000000000000000000e+02,3.000000000000000000e+02,7.000000000000004829e-02,-6.924893790895364498e-02,-3.236559539534459716e-04,4.425004417112853805e-41,-1.691167710377374205e-22,2.770190389191071025e-17,1.394340307729636663e+02,-3.663940204840462854e-06,8.337756152586505307e-06,1.992122313323179564e-36,8.647921539214475780e-20,1.191005197826620834e-14
7.100000000000000000e+02,3.000000000000000000e+02,7.100000000000004918e-02,-7.024810700528739960e-02,-3.244868249034078118e-04,4.425500774891347970e-41,-1.654994549880973445e-22,2.817619643854468686e-17,1.394340414460999966e+02,-3.663940610464251043e-06,8.337755917982082288e-06,1.992122647509774962e-36,8.647921553200671722e-20,1.191005197830062950e-14
7.200000000000000000e+02,3.000000000000000000e+02,7.200000000000005007e-02,-7.124727701684399617e-02,-3.253167807173790648e-04,4.424200693419587073e-41,-1.604244317489950282e-22,2.865048819520886018e-17,1.394340520909018153e+02,-3.663940758160086707e-06,8.337755816808538529e-06,1.992122647458604213e-36,8.647921553617917222e-20,1.191005197830360193e-14
7.300000000000000000e+02,3.000000000000000000e+02,7.300000000000005096e-02,-7.224644794119863822e-02,-3.261458238197761385e-04,4.424465874361232693e-41,-1.701882306964196679e-22,2.912477934292241488e-17,1.394340627074915062e+02,-3.663939328926834590e-06,8.337756561750400361e-06,1.992122738023937451e-36,8.647921563786445753e-20,1.191005197833250264e-14
7.400000000000000000e+02,3.000000000000000000e+02,7.400000000000005185e-02,-7.324561977593690987e-02,-3.269739566246712844e-04,4.425326887184726124e-41,-1.592886369775932245e-22,2.959906962448858655e-17,1.394340732959863374e+02,-3.663939658110176806e-06,8.337756364117102016e-06,1.992122645311537910e-36,8.647921563705301510e-20,1.191005197836545809e-14
7.500000000000000000e+02,3.000000000000000000e+02,7.500000000000005274e-02,-7.424479251865463703e-02,-3.278011815358469164e-04,4.424876936160455269e-41,-1.646238587171076520e-22,2.993783396347226402e-17,1.394340838565089769e+02,-3.663938561870729322e-06,8.337756931267530878e-06,1.992123075188771846e-36,8.647921559211830097e-20,1.191005197834039913e-14
7.600000000000000000e+02,3.000000000000000000e+02,7.600000000000005362e-02,-7.524396616695792905e-02,-3.286275009468518269e-04,4.423729573585509917e-41,-1.798175089288358705e-22,3.034436024392229497e-17,1.394340943891757831e+02,-3.663939114804187043e-06,8.337756616011627423e-06,1.992123064048334059e-36,8.647921561125423257e-20,1.191005197834330214e-14
7.700000000000000000e+02,3.000000000000000000e+02,7.700000000000005451e-02,-7.624314071846303997e-02,-3.294529172410553424e-04,4.422821502687731220e-41,-1.882673649769748168e-22,3.075088578717334822e-17,1.394341048941068948e+02,-3.663939443788986854e-06,8.337756420551986722e-06,1.992123086449611336e-36,8.647921544968982324e-20,1.191005197828283280e-14
7.800000000000000000e+02,3.000000000000000000e+02,7.800000000000005540e-02,-7.724231617079635459e-02,-3.302774327917040818e-04,4.424029575238737861e-41,-1.798295225465076372e-22,3.115741063894152794e-17,1.394341153714210293e+02,-3.663938731563329612e-06,8.337756778183964276e-06,1.992123065974215719e-36,8.647921548465843972e-20,1.191005197822455806e-14
7.900000000000000000e+02,3.000000000000000000e+02,7.900000000000005629e-02,-7.824149252159436074e-02,-3.311010499619769249e-04,4.425038155877100065e-41,-1.757295007809028798e-22,3.102183408842036012e-17,1.394341258212322145e+02,-3.663940336077111311e-06,8.337755902720933823e-06,1.992127055105061875e-36,8.647921546667759665e-20,1.191005197828622174e-14
8.000000000000000000e+02,3.000000000000000000e+02,8.000000000000005718e-02,-7.924066976850349664e-02,-3.319237711050406327e-04,4.425638081374288971e-41,-1.623116500952844743e-22,3.149612101133957089e-17,1.394341362436616691e+02,-3.663939269789186334e-06,8.337756454005319193e-06,1.992126086822541273e-36,8.647921555401097239e-20,1.191005197828627696e-14
8.100000000000000000e+02,3.000000000000000000e+02,8.100000000000005806e-02,-8.023984790918022025e-02,-3.327455985641064422e-04,4.425511417315476067e-41,-1.656876500750998250e-22,3.190264455750551238e-17,1.394341466388223409e+02,-3.663938774158080089e-06,8.337756698096582372e-06,1.992126700385594726e-36,8.647921566520545254e-20,1.191005197832053404e-14
8.200000000000000000e+02,3.000000000000000000e+02,8.200000000000005895e-02,-8.123902694129087054e-02,-3.335665346724843851e-04,4.424765565127426355e-41,-1.689229969391297425e-22,3.244469265385988337e-17,1.394341570068289400e+02,-3.663939308918166830e-06,8.337756396819548250e-06,1.992126704257954371e-36,8.647921571417296768e-20,1.191005197831580087e-14
8.300000000000000000e+02,3.000000000000000000e+02,8.300000000000005984e-02,-8.223820686251161194e-02,-3.343865817536398289e-04,4.424565312388164074e-41,-1.700969320465306532e-22,3.291897730707092584e-17,1.394341673477985921e+02,-3.663938273562108011e-06,8.337756934690504520e-06,1.992126547859758904e-36,8.647921559691309616e-20,1.191005197831602649e-14
8.400000000000000000e+02,3.000000000000000000e+02,8.400000000000006073e-02,-8.323738767052843435e-02,-3.352057421212486089e-04,4.424795026788258368e-41,-1.822156792094085662e-22,3.332549864104523790e-17,1.394341776618434778e+02,-3.663937601154095732e-06,8.337757275456763521e-06,1.992126555416603882e-36,8.647921560861137520e-20,1.191005197834341258e-14
8.500000000000000000e+02,3.000000000000000000e+02,8.500000000000006162e-02,-8.423656936303705600e-02,-3.360240180792516715e-04,4.424614028748786508e-41,-1.837448026244412083e-22,3.379978184147356369e-17,1.394341879490760050e+02,-3.663938157515758795e-06,8.337756962070746284e-06,1.992126295718439149e-36,8.647921568848054463e-20,1.191005197834594009e-14
8.600000000000000000e+02,3.000000000000000000e+02,8.600000000000006251e-02,-8.523575193774285408e-02,-3.368414119219106397e-04,4.425984850689766811e-41,-1.929986804663740106e-22,3.427406431784422513e-17,1.394341982096108268e+02,-3.663937895031784606e-06,8.337757083622645757e-06,1.992126291761032800e-36,8.647921557953723583e-20,1.191005197831877488e-14
8.700000000000000000e+02,3.000000000000000000e+02,8.700000000000006339e-02,-8.623493539236086469e-02,-3.376579259338625114e-04,4.425391800616084123e-41,-1.855049759507222554e-22,3.481610862927741317e-17,1.394342084435579920e+02,-3.663938939845589696e-06,8.337756501906900915e-06,1.992126696831251986e-36,8.647921551248894594e-20,1.191005197831429257e-14
8.800000000000000000e+02,3.000000000000000000e+02,8.800000000000006428e-02,-8.723411972461565800e-02,-3.384735623901736525e-04,4.426224979199375545e-41,-2.014940755663982531e-22,3.529038962693138925e-17,1.394342186510316708e+02,-3.663938355005139888e-06,8.337756801149629561e-06,1.992126661182741499e-36,8.647921558406317120e-20,1.191005197831317397e-14
8.900000000000000000e+02,3.000000000000000000e+02,8.900000000000006517e-02,-8.823330493224135207e-02,-3.392883235563948739e-04,4.427506658553294571e-41,-1.888305299415450929e-22,3.576466982725351148e-17,1.394342288321415708e+02,-3.663937392543551935e-06,8.337757303321672456e-06,1.992127256252323191e-36,8.647921547739944124e-20,1.191005197834377230e-14
9.000000000000000000e+02,3.000000000000000000e+02,9.000000000000006606e-02,-8.923249101298154351e-02,-3.401022116886145042e-04,4.427375626654663517e-41,-1.849709531540205366e-22,3.562908609508312292e-17,1.394342389869948988e+02,-3.663939059064177674e-06,8.337756389741752801e-06,1.992128092014722319e-36,8.647921548262794382e-20,1.191005197845333562e-14
9.100000000000000000e+02,3.000000000000000000e+02,9.100000000000006695e-02,-9.023167796458918255e-02,-3.409152290335121108e-04,4.426648992742571694e-41,-2.012127126810607211e-22,3.610336571800958044e-17,1.394342491157055122e+02,-3.663938734059680550e-06,8.337756548570964113e-06,1.992128089662577118e-36,8.647921545855768341e-20,1.191005197850740414e-14
9.200000000000000000e+02,3.000000000000000000e+02,9.200000000000006783e-02,-9.123086578482662856e-02,-3.417273778284129278e-04,4.426379304939028246e-41,-1.978697897147554096e-22,3.596778132531610133e-17,1.394342592183801344e+02,-3.663938846787665117e-06,8.337756470094950583e-06,1.992125448335055844e-36,8.647921546826872775e-20,1.191005197844820171e-14
9.300000000000000000e+02,3.000000000000000000e+02,9.300000000000006872e-02,-9.223005447146552516e-02,-3.425386603013394634e-04,4.425405564168842135e-41,-1.836055808967869186e-22,3.644206028795385861e-17,1.394342692951272227e+02,-3.663939191769861630e-06,8.337756274430763284e-06,1.992125438385344424e-36,8.647921541566704299e-20,1.191005197848075800e-14
9.400000000000000000e+02,3.000000000000000000e+02,9.400000000000006961e-02,-9.322924402228677243e-02,-3.433490786710650597e-04,4.426879352390667556e-41,-1.823325319503958727e-22,3.684857602858471608e-17,1.394342793460540406e+02,-3.663940141785755202e-06,8.337755747554708021e-06,1.992125566572091758e-36,8.647921544815080058e-20,1.191005197850263627e-14
9.500000000000000000e+02,3.000000000000000000e+02,9.500000000000007050e-02,-9.422843443508045758e-02,-3.441586351471660429e-04,4.426755179331891795e-41,-1.835460226095480715e-22,3.725509097218765300e-17,1.394342893712687612e+02,-3.663940547389253141e-06,8.337755514210134703e-06,1.992125645944016353e-36,8.647921547922614968e-20,1.191005197852931870e-14
9.600000000000000000e+02,3.000000000000000000e+02,9.600000000000007139e-02,-9.522762570764581325e-02,-3.449673319300739275e-04,4.426386209405362139e-41,-1.755231043089233899e-22,3.772936792530684609e-17,1.394342993708789038e+02,-3.663939373271064704e-06,8.337756129781789835e-06,1.992126331606963907e-36,8.647921537784120111e-20,1.191005197852299519e-14
9.700000000000000000e+02,3.000000000000000000e+02,9.700000000000007228e-02,-9.622681783779120368e-02,-3.457751712111272412e-04,4.427016174507818074e-41,-1.700794311153418924e-22,3.820364409166886575e-17,1.394343093449869855e+02,-3.663940138106808627e-06,8.337755696479524239e-06,1.992126329914524190e-36,8.647921530282195661e-20,1.191005197851516180e-14
9.800000000000000000e+02,3.000000000000000000e+02,9.800000000000007316e-02,-9.722601082333398592e-02,-3.465821551726219947e-04,4.427234749108634462e-41,-1.695581834032214385e-22,3.861015687228878649e-17,1.394343192937012930e+02,-3.663939516051157788e-06,8.337756013314251367e-06,1.992126327654362187e-36,8.647921520239193225e-20,1.191005197848262602e-14
9.900000000000000000e+02,3.000000000000000000e+02,9.900000000000007405e-02,-9.822520466210055146e-02,-3.473882859878644276e-04,4.426544194659390543e-41,-1.668260199948388671e-22,3.908443162453787848e-17,1.394343292171242865e+02,-3.663939980837392394e-06,8.337755743536700510e-06,1.992126322277485580e-36,8.647921516614652051e-20,1.191005197845491649e-14
1.000000000000000000e+03,3.000000000000000000e+02,1.000000000000000749e-01,-9.922439935192620131e-02,-3.481935658212200694e-04,4.425878595413839327e-41,-1.700727009138154051e-22,3.955870558828705539e-17,1.394343391153616381e+02,-3.663939758735091396e-06,8.337755846775734111e-06,1.992126320975848163e-36,8.647921531848913190e-20,1.191005197842490349e-14
