time,temperature,strain_11,strain_22,strain_33,strain_23,strain_13,strain_12,stress_11,stress_22,stress_33,stress_23,stress_13,stress_12
0.000000000000000000e+00,3.000000000000000000e+02,0.000000000000000000e+00,0.000000000000000000e+00,0.000000000000000000e+00,0.000000000000000000e+00,0.000000000000000000e+00,0.000000000000000000e+00,0.000000000000000000e+00,0.000000000000000000e+00,0.000000000000000000e+00,0.000000000000000000e+00,0.000000000000000000e+00,0.000000000000000000e+00
1.000000000000000000e+01,3.000000000000000000e+02,1.000000000000000021e-03,-5.057359339350318448e-04,-1.888703689379150213e-04,2.781939992441687313e-44,-2.633404847980577359e-25,-2.443101250748420363e-21,9.962953721890603731e+01,1.263856974438311463e-07,1.160648052377734101e-09,5.770397993692921559e-40,1.306153604768747970e-20,1.241991736893062820e-15
2.000000000000000000e+01,3.000000000000000000e+02,2.000000000000000042e-03,-1.373350485556681846e-03,-2.398640900337026401e-04,-4.174301732364657209e-41,6.595742615466572342e-24,-1.290681322176393553e-18,1.261822140062847808e+02,1.258068278655226349e-07,2.586755936903198304e-09,-1.997567033154271717e-36,2.375386437877065176e-19,-7.368704119173077399e-15
3.000000000000000000e+01,3.000000000000000000e+02,3.000000000000000062e-03,-2.358421323363700702e-03,-2.461041019737172583e-04,-4.047408998180442331e-41,1.255956427674970431e-23,-3.390976203506790759e-18,1.290168996166464979e+02,-2.139148145051066804e-06,5.006821987856299803e-06,-2.217249525965193960e-36,5.371873173785600956e-19,-2.235444643640010431e-14
4.000000000000000000e+01,3.000000000000000000e+02,4.000000000000000083e-03,-3.356202771004600412e-03,-2.474977550524712355e-04,-8.630369229066798012e-41,1.162483267991828426e-24,-5.195513064201666273e-18,1.292860090789110927e+02,-2.139264974347860970e-06,5.007077166757841499e-06,-3.215766706768578742e-36,2.585253108143608035e-19,-2.242672968050173834e-14
5.000000000000000000e+01,3.000000000000000000e+02,5.000000000000000104e-03,-4.355197981399498014e-03,-2.484249371705782479e-04,-9.735325358514825752e-41,7.221748479164048284e-25,-6.879010776879978417e-18,1.293113272111998810e+02,-2.139265003637314574e-06,5.007077176408535101e-06,-3.733447487514236212e-36,1.334484663277853697e-18,-1.966148901515572046e-14
6.000000000000000000e+01,3.000000000000000000e+02,6.000000000000000125e-03,-5.354313211792218613e-03,-2.493022300627463256e-04,-1.403111717960355130e-40,1.188142848478559570e-23,-8.736918622911022807e-18,1.293137663632665522e+02,-2.139264997275639742e-06,5.007077184357553064e-06,-4.208821406353216295e-36,2.372165812672884002e-18,-1.604655026473648294e-14
7.000000000000000000e+01,3.000000000000000000e+02,7.000000000000000146e-03,-6.353445713846344114e-03,-2.501688280275830172e-04,-1.235069557170376516e-40,-7.726744781580055586e-24,-1.059643223681714835e-17,1.293140599668847415e+02,-2.139265000111340031e-06,5.007077179636198192e-06,-4.138706145564404671e-36,1.898262180245829261e-18,-1.838758452599086893e-14
8.000000000000000000e+01,3.000000000000000000e+02,8.000000000000000167e-03,-7.352585608899283448e-03,-2.510286573288328404e-04,-9.851250028552517751e-41,-2.293797983060275036e-23,-1.235885350443849828e-17,1.293141498913811063e+02,-2.139483129832256999e-06,5.007570011305593268e-06,-3.971466967423827471e-36,2.771875556601285213e-19,-1.765035008951492719e-14
9.000000000000000000e+01,3.000000000000000000e+02,9.000000000000001055e-03,-8.351731633372589877e-03,-2.518824267361419048e-04,-1.004866895999479190e-40,-1.854316987883318239e-23,-1.472764426367094147e-17,1.293142171341290236e+02,-2.139649457222376603e-06,5.007942314645339916e-06,-4.870601185428229657e-36,1.266857709285231029e-18,-2.899957923653518674e-14
1.000000000000000000e+02,3.000000000000000000e+02,1.000000000000000194e-02,-9.350883289158989226e-03,-2.527305838264788077e-04,-1.238312025798464176e-40,-1.017945144901903504e-23,-1.644702889328296309e-17,1.293142781797475322e+02,-2.139790994832049336e-06,5.008257680530916634e-06,-4.129542568736805472e-36,1.137157187947768706e-18,-1.807020125006839644e-14
1.100000000000000000e+02,3.000000000000000000e+02,1.100000000000000283e-02,-1.035004013948766753e-02,-2.535735610321943815e-04,-1.205870309210419682e-40,-1.017141764307017827e-23,-1.830525447662101221e-17,1.293143344435809752e+02,-2.139910299768109198e-06,5.008524874617159015e-06,-3.930668781142585042e-36,5.227303150993820518e-19,-1.312452382878092889e-14
1.200000000000000000e+02,3.000000000000000000e+02,1.200000000000000372e-02,-1.134920176243527090e-02,-2.544117796023118118e-04,-1.281785820757461023e-40,-9.098293354320374034e-24,-2.000094357128686011e-17,1.293143861456158561e+02,-2.140010650503224112e-06,5.008749028319759572e-06,-3.353796153066290314e-36,-6.821173913362841808e-20,-5.892299808621818142e-15
1.300000000000000000e+02,3.000000000000000000e+02,1.300000000000000461e-02,-1.234836775790758116e-02,-2.552456389114572959e-04,-1.186171123319604907e-40,-1.855839258546533219e-23,-2.143529397032754412e-17,1.293144335206031030e+02,-2.140094427593059713e-06,5.008936182717981315e-06,-2.930722606081728293e-36,-1.184021561528856457e-19,-1.590381342152403997e-14
1.400000000000000000e+02,3.000000000000000000e+02,1.400000000000000550e-02,-1.334753775425722398e-02,-2.560755096769257492e-04,-1.297072206758814574e-40,-1.632482072915858849e-23,-2.353511822345076259e-17,1.293144768719618298e+02,-2.140164047386637490e-06,5.009092213579694582e-06,-3.720101013788844470e-36,-5.179142757872837971e-19,-2.170566226712112446e-14
1.500000000000000000e+02,3.000000000000000000e+02,1.500000000000000638e-02,-1.434671141140998751e-02,-2.569017309344209798e-04,-1.165116637072250907e-40,-2.996253491515337922e-23,-2.532412604054953857e-17,1.293145165384850088e+02,-2.140222261741770925e-06,5.009222189130231485e-06,-4.238374963368553275e-36,-1.795373690474399017e-18,-1.259698192517457599e-14
1.600000000000000000e+02,3.000000000000000000e+02,1.600000000000000727e-02,-1.534588842150120570e-02,-2.577246094849196473e-04,-1.041652128541193440e-40,-3.544972074345798057e-23,-2.695320058972190832e-17,1.293145528671803959e+02,-2.140270719401310500e-06,5.009330882533633774e-06,-3.431256483061594487e-36,-1.403798453621871826e-18,-1.138057364388025730e-14
1.700000000000000000e+02,3.000000000000000000e+02,1.700000000000000816e-02,-1.634506850171378589e-02,-2.585444273060377588e-04,-1.041496915921955587e-40,-3.549577505467043056e-23,-2.857946428822006634e-17,1.293145861319660241e+02,-2.140270654712475970e-06,5.009330011682364836e-06,-3.431251325522902345e-36,-1.403798455281543304e-18,-1.138057364319727730e-14
1.800000000000000000e+02,3.000000000000000000e+02,1.800000000000000905e-02,-1.734425141307141538e-02,-2.593614219539801106e-04,-1.041261283769091152e-40,-4.021296376939651623e-23,-3.081558958731672335e-17,1.293146167960615571e+02,-2.140270350874054873e-06,5.009329469052046478e-06,-3.431211288136411954e-36,-1.403798455213938926e-18,-1.138057364341560560e-14
1.900000000000000000e+02,3.000000000000000000e+02,1.900000000000000994e-02,-1.834343693558919408e-02,-2.601758127478398085e-04,-1.041248818205429043e-40,-3.446413140842611802e-23,-3.311947309279095590e-17,1.293146450766763564e+02,-2.140270025895097486e-06,5.009329090410425485e-06,-3.431170398090137892e-36,-1.403798454121361950e-18,-1.138057364338921031e-14
2.000000000000000000e+02,3.000000000000000000e+02,2.000000000000001082e-02,-1.934262487401281275e-02,-2.609877941315322486e-04,-1.041319159499202297e-40,-2.271132267171329529e-23,-3.474572602225336973e-17,1.293146712381874579e+02,-2.140269663175628293e-06,5.009328846737177300e-06,-3.431172287587639534e-36,-1.403798453801935298e-18,-1.138057364398931732e-14
2.100000000000000000e+02,3.000000000000000000e+02,2.100000000000001171e-02,-2.034181505566219281e-02,-2.617975380357608832e-04,-1.041184269275007452e-40,-3.678001808056277199e-23,-3.650750073865994277e-17,1.293146955250663837e+02,-2.140269467225721958e-06,5.009328602810280017e-06,-3.431172708053791627e-36,-1.403798452396398943e-18,-1.138057364422583990e-14
2.200000000000000000e+02,3.000000000000000000e+02,2.200000000000001260e-02,-2.134100732808292752e-02,-2.626051962424139313e-04,-1.041393529048993315e-40,-2.628493615395579531e-23,-3.820150960835422273e-17,1.293147181567110238e+02,-2.140269647582693211e-06,5.009328221781553312e-06,-3.431174211538691303e-36,-1.403798452663849946e-18,-1.138057364390171116e-14
2.300000000000000000e+02,3.000000000000000000e+02,2.300000000000001349e-02,-2.234020155682853170e-02,-2.634109025989439913e-04,-1.041506081115888550e-40,-3.857222845165683137e-23,-4.050537944918908717e-17,1.293147393285446469e+02,-2.140269516079886673e-06,5.009328057079095165e-06,-3.431174248195496931e-36,-1.403798453300807363e-18,-1.138057364402540770e-14
2.400000000000000000e+02,3.000000000000000000e+02,2.400000000000001438e-02,-2.333939762342246080e-02,-2.642147750505422746e-04,-1.041565998406714111e-40,-4.104754742682986030e-23,-4.267371987714028881e-17,1.293147592139129074e+02,-2.140269495194692278e-06,5.009327874693844227e-06,-3.431185566124241651e-36,-1.403798453313397745e-18,-1.138057364392162832e-14
2.500000000000000000e+02,3.000000000000000000e+02,2.500000000000001527e-02,-2.433859542350900323e-02,-2.650169174830087544e-04,-1.041384428473869091e-40,-5.608251335791892408e-23,-4.443548078990132139e-17,1.293147779661165657e+02,-2.140269462047437280e-06,5.009327731232421981e-06,-3.431185980656660307e-36,-1.403798453563825068e-18,-1.138057364390448795e-14
2.600000000000000000e+02,3.000000000000000000e+02,2.600000000000001615e-02,-2.533779486518993734e-02,-2.658174213799526929e-04,-1.041570385459653929e-40,-6.123907116164279844e-23,-4.599395049488636085e-17,1.293147957204154750e+02,-2.140269510914295208e-06,5.009327566819477154e-06,-3.431187146282150547e-36,-1.403798453475782914e-18,-1.138057364381767696e-14
2.700000000000000000e+02,3.000000000000000000e+02,2.700000000000001704e-02,-2.633699586753768251e-02,-2.666163673037931850e-04,-1.041645443495162352e-40,-4.870788039120725249e-23,-4.762018009078217693e-17,1.293148125959379229e+02,-2.140269391768705377e-06,5.009327510883300037e-06,-3.431187503130800865e-36,-1.403798452990277930e-18,-1.138057364389978003e-14
2.800000000000000000e+02,3.000000000000000000e+02,2.800000000000001793e-02,-2.733619835927251010e-02,-2.674138262131025819e-04,-1.041675774236263962e-40,-3.653795371906372910e-23,-4.924640681315405581e-17,1.293148286974557095e+02,-2.140269577831528156e-06,5.009327314573098496e-06,-3.431167797987523258e-36,-1.403798452905466331e-18,-1.138057364396408639e-14
2.900000000000000000e+02,3.000000000000000000e+02,2.900000000000001882e-02,-2.833540227758997096e-02,-2.682098606301864673e-04,-1.041604207475756110e-40,-4.674733176823111695e-23,-5.094039323913412623e-17,1.293148441170132514e+02,-2.140269736912582692e-06,5.009327144290433879e-06,-3.431157432078679845e-36,-1.403798453588101800e-18,-1.138057364395112383e-14
3.000000000000000000e+02,3.000000000000000000e+02,3.000000000000001971e-02,-2.933460756712439818e-02,-2.690045256730612204e-04,-1.041751756867285694e-40,-4.764882258884529602e-23,-5.256661411352979973e-17,1.293148589354020430e+02,-2.140269760213211815e-06,5.009327053130725381e-06,-3.431151944021833032e-36,-1.403798454260539277e-18,-1.138057364394223336e-14
3.100000000000000000e+02,3.000000000000000000e+02,3.100000000000002059e-02,-3.033381417903469393e-02,-2.697978699656054737e-04,-1.041523576136479182e-40,-4.494575711828235466e-23,-5.419283196657506060e-17,1.293148732234866998e+02,-2.140269789450166316e-06,5.009326964747408772e-06,-3.431158508612629377e-36,-1.403798453717222499e-18,-1.138057364394798731e-14
3.200000000000000000e+02,3.000000000000000000e+02,3.200000000000002148e-02,-3.133302207019934837e-02,-2.705899364389003888e-04,-1.041808959247343375e-40,-4.462884849235068162e-23,-5.581904717044931320e-17,1.293148870433909678e+02,-2.140269760150612692e-06,5.009326915829628918e-06,-3.431158548190508912e-36,-1.403798453526641716e-18,-1.138057364404818212e-14
3.300000000000000000e+02,3.000000000000000000e+02,3.300000000000002237e-02,-3.233223120250863086e-02,-2.713807630358115036e-04,-1.041822390138893634e-40,-3.128549032276816429e-23,-5.744525951600672214e-17,1.293149004495517715e+02,-2.140269682350088456e-06,5.009326900630142758e-06,-3.431159127827798408e-36,-1.403798453643596508e-18,-1.138057364415239537e-14
3.400000000000000000e+02,3.000000000000000000e+02,3.400000000000002326e-02,-3.333144154224288586e-02,-2.721703833298250402e-04,-1.041545387134736957e-40,-2.445651640938641339e-23,-5.900370643807543016e-17,1.293149134896543444e+02,-2.140269361818751151e-06,5.009327017708441108e-06,-3.431159490188653089e-36,-1.403798453811102725e-18,-1.138057364408667695e-14
3.500000000000000000e+02,3.000000000000000000e+02,3.500000000000002415e-02,-3.433065305952695545e-02,-2.729588270680994569e-04,-1.041721182774664623e-40,-4.415378291724311393e-23,-6.062991314404962462e-17,1.293149262054573967e+02,-2.140269509092975318e-06,5.009326880732913616e-06,-3.431153703725301906e-36,-1.403798454114210779e-18,-1.138057364412950894e-14
3.600000000000000000e+02,3.000000000000000000e+02,3.600000000000002504e-02,-3.532986572785171836e-02,-2.737461206476762615e-04,-1.041886189504931109e-40,-3.555842736706531110e-23,-6.218835436661632529e-17,1.293149386335241786e+02,-2.140269723555246655e-06,5.009326719802786156e-06,-3.431137918444699401e-36,-1.403798454363695937e-18,-1.138057364408996650e-14
3.700000000000000000e+02,3.000000000000000000e+02,3.700000000000002592e-02,-3.632907952365477949e-02,-2.745322875328374038e-04,-1.041623338891231753e-40,-4.336782305092085693e-23,-6.449218154638533718e-17,1.293149508058628214e+02,-2.140270178756946014e-06,5.009326427800829721e-06,-3.431134906713661050e-36,-1.403798454453375516e-18,-1.138057364413377984e-14
3.800000000000000000e+02,3.000000000000000000e+02,3.800000000000002681e-02,-3.732829442595312491e-02,-2.753173486207086563e-04,-1.041872714550433920e-40,-2.658069256412096838e-23,-6.591509092259351483e-17,1.293149627504921568e+02,-2.140270302608055013e-06,5.009326318724153468e-06,-3.431133889502437219e-36,-1.403798454663414162e-18,-1.138057364422312307e-14
3.900000000000000000e+02,3.000000000000000000e+02,3.900000000000002770e-02,-3.832751041602146941e-02,-2.761013225614041325e-04,-1.041589048802531685e-40,-1.157328934583762913e-23,-6.740576027664933504e-17,1.293149744919360842e+02,-2.140270482804754080e-06,5.009326186446880566e-06,-3.431134208790487858e-36,-1.403798454469616691e-18,-1.138057364425709299e-14
4.000000000000000000e+02,3.000000000000000000e+02,4.000000000000002859e-02,-3.932672747711066230e-02,-2.768842260382733044e-04,-1.041760507372878265e-40,7.495650625933205219e-25,-6.889642680756527104e-17,1.293149860516605543e+02,-2.140270411094767312e-06,5.009326182686025481e-06,-3.431135526262753945e-36,-1.403798454332669783e-18,-1.138057364425915981e-14
4.100000000000000000e+02,3.000000000000000000e+02,4.100000000000002948e-02,-4.032594559420127345e-02,-2.776660740131575082e-04,-1.042018211014168908e-40,8.061154358672264819e-24,-7.025156540493815076e-17,1.293149974484537950e+02,-2.140270737792829311e-06,5.009325973818945050e-06,-3.431135350322829735e-36,-1.403798454118009291e-18,-1.138057364425554840e-14
4.200000000000000000e+02,3.000000000000000000e+02,4.200000000000003036e-02,-4.132516475378796711e-02,-2.784468799409778946e-04,-1.041979130081112466e-40,2.444787712210053109e-23,-7.180998922281999651e-17,1.293150086987626821e+02,-2.140271214199276409e-06,5.009325682794390098e-06,-3.431135938562322912e-36,-1.403798454162793325e-18,-1.138057364420943948e-14
4.300000000000000000e+02,3.000000000000000000e+02,4.300000000000003125e-02,-4.232438494369088200e-02,-2.792266559574549519e-04,-1.041947448987146155e-40,2.996229321312887464e-23,-7.330064779837326096e-17,1.293150198169857958e+02,-2.140270999922972003e-06,5.009325763318049026e-06,-3.431139545247776865e-36,-1.403798454240241324e-18,-1.138057364428017822e-14
4.400000000000000000e+02,3.000000000000000000e+02,4.400000000000003214e-02,-4.332360615289067990e-02,-2.800054130432988908e-04,-1.042230088322839966e-40,3.012857797674597599e-23,-7.770509977481598564e-17,1.293150308157274537e+02,-2.140271519018673892e-06,5.009325451306011556e-06,-3.431139556294010721e-36,-1.403798454288087779e-18,-1.138057364432095917e-14
4.500000000000000000e+02,3.000000000000000000e+02,4.500000000000003303e-02,-4.432282837138422360e-02,-2.807831611678012168e-04,-1.042425388337710616e-40,2.784071293637079215e-23,-8.204178188387575516e-17,1.293150417060269319e+02,-2.140271629051693964e-06,5.009325362046583359e-06,-3.431145171054592971e-36,-1.403798454458349038e-18,-1.138057364427908170e-14
4.600000000000000000e+02,3.000000000000000000e+02,4.600000000000003392e-02,-4.532205159005844169e-02,-2.815599094144001957e-04,-1.042100538651951520e-40,3.615565801503528943e-23,-8.637845687470665930e-17,1.293150524975520455e+02,-2.140271428398896805e-06,5.009325442200945239e-06,-3.431145187839018125e-36,-1.403798454392353389e-18,-1.138057364435034109e-14
4.700000000000000000e+02,3.000000000000000000e+02,4.700000000000003481e-02,-4.632127580058000016e-02,-2.823356660904713399e-04,-1.042342167797842151e-40,4.197052584552058868e-23,-9.003749848755473954e-17,1.293150631987717816e+02,-2.140271222551474008e-06,5.009325522594182269e-06,-3.431146991145678480e-36,-1.403798454212982867e-18,-1.138057364431555390e-14
4.800000000000000000e+02,3.000000000000000000e+02,4.800000000000003569e-02,-4.732050099529884479e-02,-2.831104388233200665e-04,-1.041979668921823690e-40,5.919668570583518049e-23,-9.430639721186173158e-17,1.293150738171077023e+02,-2.140271053151188600e-06,5.009325588283414379e-06,-3.431149922698589846e-36,-1.403798454189831455e-18,-1.138057364424826722e-14
4.900000000000000000e+02,3.000000000000000000e+02,4.900000000000003658e-02,-4.831972716716387284e-02,-2.838842346441049626e-04,-1.042201176113879335e-40,5.971636480594550336e-23,-9.796542546634284288e-17,1.293150843590655938e+02,-2.140270675476332472e-06,5.009325767155703741e-06,-3.431155862434895438e-36,-1.403798453983055528e-18,-1.138057364424801321e-14
5.000000000000000000e+02,3.000000000000000000e+02,5.000000000000003747e-02,-4.931895430964922111e-02,-2.846570600612059092e-04,-1.041860932232354271e-40,5.563413220514686256e-23,-1.021665482108328952e-16,1.293150948303496932e+02,-2.140270511762464266e-06,5.009325827392953229e-06,-3.431155928092981573e-36,-1.403798454035448141e-18,-1.138057364431993839e-14
5.100000000000000000e+02,3.000000000000000000e+02,5.100000000000003836e-02,-5.031818241668981062e-02,-2.854289211243629882e-04,-1.041477247159861975e-40,5.918990743178347830e-23,-1.064354265383214084e-16,1.293151052359644666e+02,-2.140270696627251691e-06,5.009325694545810959e-06,-3.431163674045086865e-36,-1.403798454266312445e-18,-1.138057364427552867e-14
5.200000000000000000e+02,3.000000000000000000e+02,5.200000000000003925e-02,-5.131741148262500274e-02,-2.861998234807455093e-04,-1.041675992624386766e-40,6.527291668380048940e-23,-1.106365349324537030e-16,1.293151155803031997e+02,-2.140270485908833370e-06,5.009325778747191229e-06,-3.431159268220357566e-36,-1.403798454209533911e-18,-1.138057364421607065e-14
5.300000000000000000e+02,3.000000000000000000e+02,5.300000000000004013e-02,-5.231664150214936776e-02,-2.869697724239664055e-04,-1.041476410666641315e-40,8.519989550585186405e-23,-1.149053988421597034e-16,1.293151258672223207e+02,-2.140271080466686977e-06,5.009325435420809026e-06,-3.431151172310752453e-36,-1.403798453959141448e-18,-1.138057364413887272e-14
5.400000000000000000e+02,3.000000000000000000e+02,5.400000000000004102e-02,-5.331587247026960130e-02,-2.877387729369288729e-04,-1.041739327261552437e-40,7.643076773535810610e-23,-1.190387305114770135e-16,1.293151361001129374e+02,-2.140271136454727499e-06,5.009325379993141362e-06,-3.431151216272875521e-36,-1.403798453991681190e-18,-1.138057364416840136e-14
5.500000000000000000e+02,3.000000000000000000e+02,5.500000000000004191e-02,-5.431510438226692244e-02,-2.885068297292824112e-04,-1.041688257573529174e-40,5.837776049937495423e-23,-1.226299543387131045e-16,1.293151462819554922e+02,-2.140271304605375459e-06,5.009325265242378590e-06,-3.431148987931706143e-36,-1.403798454144792428e-18,-1.138057364413785509e-14
5.600000000000000000e+02,3.000000000000000000e+02,5.600000000000004280e-02,-5.531433723366414867e-02,-2.892739472701658923e-04,-1.041589242112621690e-40,6.655706075180028206e-23,-1.262211719567930863e-16,1.293151564153736786e+02,-2.140271458969211608e-06,5.009325162164243133e-06,-3.431130402811012180e-36,-1.403798454246269870e-18,-1.138057364411963871e-14
5.700000000000000000e+02,3.000000000000000000e+02,5.700000000000004369e-02,-5.631357102019694111e-02,-2.900401298168328828e-04,-1.041918134419365102e-40,5.077275978892047734e-23,-1.298123834351964995e-16,1.293151665026787214e+02,-2.140271623029044493e-06,5.009325048480201467e-06,-3.431140539764982517e-36,-1.403798454209236933e-18,-1.138057364412161718e-14
5.800000000000000000e+02,3.000000000000000000e+02,5.800000000000004458e-02,-5.731280573778865794e-02,-2.908053814396759518e-04,-1.041927389170519092e-40,4.641701121457557696e-23,-1.338779268027806930e-16,1.293151765459088836e+02,-2.140271443010218956e-06,5.009325121259023112e-06,-3.431142223166633728e-36,-1.403798454096673646e-18,-1.138057364410302057e-14
5.900000000000000000e+02,3.000000000000000000e+02,5.900000000000004546e-02,-5.831204138252837899e-02,-2.915697060441061958e-04,-1.042047120230832700e-40,2.837054280802034243e-23,-1.373335999355203563e-16,1.293151865468626625e+02,-2.140271691396981876e-06,5.009324961484128314e-06,-3.431145955983365695e-36,-1.403798454139575662e-18,-1.138057364417086261e-14
6.000000000000000000e+02,3.000000000000000000e+02,6.000000000000004635e-02,-5.931127795065167102e-02,-2.923331073896820887e-04,-1.041994389309044852e-40,3.902087818298340033e-23,-1.408570297138421882e-16,1.293151965071305085e+02,-2.140272327073539147e-06,5.009324594807610030e-06,-3.431146097679196998e-36,-1.403798454124621201e-18,-1.138057364406667302e-14
6.100000000000000000e+02,3.000000000000000000e+02,6.100000000000004724e-02,-6.031051543852377489e-02,-2.930955891068360111e-04,-1.041756385584425218e-40,3.248371833849165827e-23,-1.443804534326549232e-16,1.293152064281215985e+02,-2.140271898066846983e-06,5.009324796977343248e-06,-3.431134847639598687e-36,-1.403798454127736970e-18,-1.138057364407664895e-14
6.200000000000000000e+02,3.000000000000000000e+02,6.200000000000004813e-02,-6.130975384262494360e-02,-2.938571547115008419e-04,-1.041642852218013794e-40,4.188936367039190560e-23,-1.483104465040845112e-16,1.293152163110825938e+02,-2.140272031614027679e-06,5.009324703122169235e-06,-3.431145908440414125e-36,-1.403798454418437221e-18,-1.138057364398580688e-14
6.300000000000000000e+02,3.000000000000000000e+02,6.300000000000004208e-02,-6.230899315953754292e-02,-2.946178076179008882e-04,-1.041785858150611964e-40,3.615151934415807877e-23,-1.523081952330985697e-16,1.293152261571227086e+02,-2.140271978914535400e-06,5.009324702860220908e-06,-3.431142222265156965e-36,-1.403798454293881361e-18,-1.138057364401321191e-14
6.400000000000000000e+02,3.000000000000000000e+02,6.400000000000004297e-02,-6.330823338593485894e-02,-2.953775511497400922e-04,-1.041649697546833445e-40,3.118319692268037933e-23,-1.563059371562524421e-16,1.293152359672284035e+02,-2.140271920708228245e-06,5.009324710392259798e-06,-3.431142172981946242e-36,-1.403798454297749784e-18,-1.138057364400670697e-14
6.500000000000000000e+02,3.000000000000000000e+02,6.500000000000004385e-02,-6.430747451857123098e-02,-2.961363885499872272e-04,-1.041609754234403535e-40,2.776822559725206267e-23,-1.596938088624170592e-16,1.293152457422779094e+02,-2.140273134336355751e-06,5.009324035685970153e-06,-3.431143762962373696e-36,-1.403798454143203536e-18,-1.138057364404117861e-14
6.600000000000000000e+02,3.000000000000000000e+02,6.600000000000004474e-02,-6.530671655427343347e-02,-2.968943229894380588e-04,-1.041402500879656876e-40,2.643466867593385326e-23,-1.636237753752090382e-16,1.293152554830599001e+02,-2.140273068096612365e-06,5.009324053581979772e-06,-3.431144452204203979e-36,-1.403798454132317410e-18,-1.138057364401232681e-14
6.700000000000000000e+02,3.000000000000000000e+02,6.700000000000004563e-02,-6.630595948993320277e-02,-2.976513575742068571e-04,-1.041219541883642023e-40,2.157488825631533772e-23,-1.674859723384310279e-16,1.293152651902775006e+02,-2.140273146842827710e-06,5.009323987049497564e-06,-3.431148214387614793e-36,-1.403798454202910638e-18,-1.138057364403424925e-14
6.800000000000000000e+02,3.000000000000000000e+02,6.800000000000004652e-02,-6.730520332250061744e-02,-2.984074953522815907e-04,-1.041196906199754022e-40,9.951863499776023128e-24,-1.708060616978761023e-16,1.293152748645628947e+02,-2.140274059261114099e-06,5.009323475503765405e-06,-3.431148068087040877e-36,-1.403798454423555765e-18,-1.138057364403635709e-14
6.900000000000000000e+02,3.000000000000000000e+02,6.900000000000004741e-02,-6.830444804897831124e-02,-2.991627393192632057e-04,-1.041441138788428527e-40,5.955315834152668335e-24,-1.746004831882649476e-16,1.293152845064883536e+02,-2.140273697080381578e-06,5.009323645229477060e-06,-3.431148279969493725e-36,-1.403798454580362670e-18,-1.138057364403848859e-14
7.000000000000000000e+02,3.000000000000000000e+02,7.000000000000004829e-02,-6.930369366641647710e-02,-2.999170924233901438e-04,-1.041468585704281572e-40,7.451154714841745652e-24,-1.778527971393206506e-16,1.293152941165679692e+02,-2.140273480293692168e-06,5.009323742874993069e-06,-3.431141126766930842e-36,-1.403798454794851370e-18,-1.138057364401530397e-14
7.100000000000000000e+02,3.000000000000000000e+02,7.100000000000004918e-02,-7.030294017190841238e-02,-3.006705575699385766e-04,-1.041382931273855859e-40,1.240555570661667666e-23,-1.817149685698899565e-16,1.293153036952684261e+02,-2.140274120445948239e-06,5.009323382092075821e-06,-3.431139644033857473e-36,-1.403798454812914859e-18,-1.138057364398152653e-14
7.200000000000000000e+02,3.000000000000000000e+02,7.200000000000005007e-02,-7.130218756258663304e-02,-3.014231376250775573e-04,-1.041328592506039927e-40,4.312640765079145301e-24,-1.849672698974443841e-16,1.293153132430163907e+02,-2.140274154571883315e-06,5.009323336318637274e-06,-3.431138300160858156e-36,-1.403798454999352967e-18,-1.138057364398667936e-14
7.300000000000000000e+02,3.000000000000000000e+02,7.300000000000005096e-02,-7.230143583561950138e-02,-3.021748354192473952e-04,-1.041527855081589754e-40,1.508024226214390687e-23,-1.886939034110949546e-16,1.293153227602010418e+02,-2.140272919997031247e-06,5.009323980294031186e-06,-3.431139206923186095e-36,-1.403798455135748288e-18,-1.138057364392959266e-14
7.400000000000000000e+02,3.000000000000000000e+02,7.400000000000005185e-02,-7.330068498820828393e-02,-3.029256537501215873e-04,-1.041695877182731448e-40,1.730023153804213689e-23,-1.918784294895462378e-16,1.293153322471747799e+02,-2.140274299551362244e-06,5.009323214081378033e-06,-3.431138432910249720e-36,-1.403798455152858635e-18,-1.138057364396974410e-14
7.500000000000000000e+02,3.000000000000000000e+02,7.500000000000005274e-02,-7.429993501758444530e-02,-3.036755953852038619e-04,-1.041665173787888508e-40,2.773395987410024535e-23,-1.957405756965886553e-16,1.293153417042684907e+02,-2.140274901238593489e-06,5.009322874874689647e-06,-3.431138809358920443e-36,-1.403798455163221486e-18,-1.138057364388629050e-14
7.600000000000000000e+02,3.000000000000000000e+02,7.600000000000005362e-02,-7.529918592100744157e-02,-3.044246630641092859e-04,-1.041414294264459795e-40,1.683751781907790429e-23,-1.990606145150469075e-16,1.293153511317853486e+02,-2.140274605735784661e-06,5.009323007439505671e-06,-3.431130882652824079e-36,-1.403798455202282620e-18,-1.138057364393940293e-14
7.700000000000000000e+02,3.000000000000000000e+02,7.700000000000005451e-02,-7.629843769576268031e-02,-3.051728595005644010e-04,-1.041112760723533980e-40,1.339115137253018756e-23,-2.027872227074127276e-16,1.293153605300068705e+02,-2.140272940628166580e-06,5.009323881812878212e-06,-3.431130688772151841e-36,-1.403798455203949897e-18,-1.138057364394644588e-14
7.800000000000000000e+02,3.000000000000000000e+02,7.800000000000005540e-02,-7.729769033915978582e-02,-3.059201873841666127e-04,-1.041147322670902730e-40,3.301701080745983998e-23,-2.059039608908077222e-16,1.293153698991919214e+02,-2.140273056465051325e-06,5.009323794523217510e-06,-3.431130947760856573e-36,-1.403798455310846713e-18,-1.138057364392962421e-14
7.900000000000000000e+02,3.000000000000000000e+02,7.900000000000005629e-02,-7.829694384853097544e-02,-3.066666493819295036e-04,-1.040865395339296551e-40,5.350251978422865333e-23,-2.090884560059355260e-16,1.293153792395876849e+02,-2.140272628098114252e-06,5.009324001911880705e-06,-3.431131421077573816e-36,-1.403798455329892812e-18,-1.138057364398065247e-14
8.000000000000000000e+02,3.000000000000000000e+02,8.000000000000005718e-02,-7.929619822122975503e-02,-3.074122481396441577e-04,-1.041187234111544959e-40,5.433484377897769894e-23,-2.151867402535916859e-16,1.293153885514239505e+02,-2.140272076777242938e-06,5.009324274691268046e-06,-3.431132167037511904e-36,-1.403798455367091764e-18,-1.138057364405665764e-14
8.100000000000000000e+02,3.000000000000000000e+02,8.100000000000005806e-02,-8.029545345462969774e-02,-3.081569862830767703e-04,-1.041374334865799555e-40,6.280755908045892406e-23,-2.211494890526278964e-16,1.293153978349174054e+02,-2.140271858357348222e-06,5.009324372042264770e-06,-3.431132291579184488e-36,-1.403798455353072727e-18,-1.138057364400428674e-14
8.200000000000000000e+02,3.000000000000000000e+02,8.200000000000005895e-02,-8.129470954612337541e-02,-3.089008664190249316e-04,-1.041681069067659998e-40,7.409482444354389562e-23,-2.271799904649690413e-16,1.293154070902735953e+02,-2.140271990451433733e-06,5.009324287560409021e-06,-3.431132131669510077e-36,-1.403798455277271591e-18,-1.138057364400062958e-14
8.300000000000000000e+02,3.000000000000000000e+02,8.300000000000005984e-02,-8.229396649312141487e-02,-3.096438911362499866e-04,-1.041363184177243329e-40,7.760420317503992073e-23,-2.330749565469261638e-16,1.293154163176896532e+02,-2.140270706670161781e-06,5.009324954766250717e-06,-3.431132384663345221e-36,-1.403798455191227975e-18,-1.138057364402888027e-14
8.400000000000000000e+02,3.000000000000000000e+02,8.400000000000006073e-02,-8.329322429305172082e-02,-3.103860630063005953e-04,-1.041475683847271790e-40,7.397809296017331894e-23,-2.391054379556513711e-16,1.293154255173487002e+02,-2.140271488969485521e-06,5.009324518342226559e-06,-3.431123457301313393e-36,-1.403798455131931480e-18,-1.138057364397531188e-14
8.500000000000000000e+02,3.000000000000000000e+02,8.500000000000006162e-02,-8.429248294335865699e-02,-3.111273845842414242e-04,-1.041423285815747010e-40,8.246458705065665939e-23,-2.456102473494484760e-16,1.293154346894324647e+02,-2.140270864638406030e-06,5.009324835026911965e-06,-3.431121998636877798e-36,-1.403798455168102948e-18,-1.138057364389676027e-14
8.600000000000000000e+02,3.000000000000000000e+02,8.600000000000006251e-02,-8.529174244150249107e-02,-3.118678584092998197e-04,-1.041070360309289644e-40,8.117013876084317907e-23,-2.508953194277593616e-16,1.293154438341097432e+02,-2.140271744431313478e-06,5.009324342598413577e-06,-3.431127704293812523e-36,-1.403798455161467349e-18,-1.138057364389628695e-14
8.700000000000000000e+02,3.000000000000000000e+02,8.700000000000006339e-02,-8.629100278495874243e-02,-3.126074870054382660e-04,-1.040809367195092344e-40,9.575178148680464236e-23,-2.567902458132284073e-16,1.293154529515473143e+02,-2.140272354284520858e-06,5.009323996293999057e-06,-3.431130663697870308e-36,-1.403798455028345916e-18,-1.138057364388856558e-14
8.800000000000000000e+02,3.000000000000000000e+02,8.800000000000006428e-02,-8.729026397121769643e-02,-3.133462728818651533e-04,-1.040867864162244390e-40,9.659569885047875071e-23,-2.626173994438984118e-16,1.293154620419066703e+02,-2.140270783288341525e-06,5.009324821957934743e-06,-3.431130640017613978e-36,-1.403798455034925278e-18,-1.138057364388749431e-14
8.900000000000000000e+02,3.000000000000000000e+02,8.900000000000006517e-02,-8.828952599778400190e-02,-3.140842185334893834e-04,-1.040553003515615776e-40,8.604800522065069422e-23,-2.683767804907285004e-16,1.293154711053389008e+02,-2.140270917579927385e-06,5.009324727507798859e-06,-3.431138709753253909e-36,-1.403798454962574060e-18,-1.138057364394033536e-14
9.000000000000000000e+02,3.000000000000000000e+02,9.000000000000006606e-02,-8.928878886217617161e-02,-3.148213264413250484e-04,-1.040577882190055113e-40,9.388413382459933305e-23,-2.741361516442090353e-16,1.293154801419955504e+02,-2.140271272865881173e-06,5.009324519189319646e-06,-3.431138983535440693e-36,-1.403798454938277491e-18,-1.138057364399491823e-14
9.100000000000000000e+02,3.000000000000000000e+02,9.100000000000006695e-02,-9.028805256192627693e-02,-3.155575990728562105e-04,-1.040794210020504825e-40,8.141645552914937280e-23,-2.798955128995115962e-16,1.293154891520225362e+02,-2.140272291662721158e-06,5.009323956950306297e-06,-3.431139123511003788e-36,-1.403798455048996507e-18,-1.138057364396289521e-14
9.200000000000000000e+02,3.000000000000000000e+02,9.200000000000006783e-02,-9.128731709457958698e-02,-3.162930388823625419e-04,-1.040973371109132400e-40,9.322708931753562455e-23,-2.855871015997015477e-16,1.293154981355642406e+02,-2.140272229557108842e-06,5.009323974570869272e-06,-3.431131996011764295e-36,-1.403798455064908348e-18,-1.138057364403819671e-14
9.300000000000000000e+02,3.000000000000000000e+02,9.300000000000006872e-02,-9.228658245769431889e-02,-3.170276483112133606e-04,-1.040841889574238405e-40,8.593024160413285516e-23,-2.917530185330085796e-16,1.293155070927585939e+02,-2.140272923253958056e-06,5.009323579499135054e-06,-3.431134142711846205e-36,-1.403798455074857702e-18,-1.138057364404644820e-14
9.400000000000000000e+02,3.000000000000000000e+02,9.400000000000006961e-02,-9.328584864884131855e-02,-3.177614297881319050e-04,-1.040940105225273403e-40,9.597282314437210572e-23,-2.974445868066042508e-16,1.293155160237434984e+02,-2.140272958547067264e-06,5.009323541105991985e-06,-3.431133978400187117e-36,-1.403798455088019315e-18,-1.138057364401841524e-14
9.500000000000000000e+02,3.000000000000000000e+02,9.500000000000007050e-02,-9.428511566560386636e-02,-3.184943857294364597e-04,-1.041009919505484856e-40,1.008277081005152451e-22,-3.024585192619769976e-16,1.293155249286520814e+02,-2.140273393878689546e-06,5.009323290043198722e-06,-3.431140989344328453e-36,-1.403798454962682298e-18,-1.138057364398877773e-14
9.600000000000000000e+02,3.000000000000000000e+02,9.600000000000007139e-02,-9.528438350557742742e-02,-3.192265185392579013e-04,-1.040837690218143671e-40,1.116605401484244580e-22,-3.080823061343352397e-16,1.293155338076158785e+02,-2.140274301907253097e-06,5.009322785770099072e-06,-3.431141490876085689e-36,-1.403798454944220526e-18,-1.138057364396126542e-14
9.700000000000000000e+02,3.000000000000000000e+02,9.700000000000007228e-02,-9.628365216636945723e-02,-3.199578306097391371e-04,-1.041172709593930630e-40,1.003979728280399143e-22,-3.136383206316373386e-16,1.293155426607651748e+02,-2.140274951551613637e-06,5.009322425153479803e-06,-3.431141421783661945e-36,-1.403798455008176037e-18,-1.138057364396686318e-14
9.800000000000000000e+02,3.000000000000000000e+02,9.800000000000007316e-02,-9.728292164559922128e-02,-3.206883243212170888e-04,-1.041145417347801487e-40,1.001581080800591290e-22,-3.185844621239963294e-16,1.293155514882281523e+02,-2.140274614382836547e-06,5.009322589877616912e-06,-3.431144816418788035e-36,-1.403798454943281635e-18,-1.138057364399642969e-14
9.900000000000000000e+02,3.000000000000000000e+02,9.900000000000007405e-02,-9.828219194089764243e-02,-3.214180020423904180e-04,-1.040912883073423868e-40,9.898695638571682108e-23,-3.240726955225489245e-16,1.293155602901297812e+02,-2.140274193721880815e-06,5.009322797511266599e-06,-3.431145882930879541e-36,-1.403798454986869281e-18,-1.138057364399673261e-14
1.000000000000000000e+03,3.000000000000000000e+02,1.000000000000000749e-01,-9.928146304990713433e-02,-3.221468661304733206e-04,-1.040836605702022095e-40,9.034980379033185200e-23,-3.289510560610919798e-16,1.293155690665930706e+02,-2.140274647805549624e-06,5.009322539559881331e-06,-3.431144912176377660e-36,-1.403798455043321177e-18,-1.138057364404817423e-14
