time,temperature,strain_11,strain_22,strain_33,strain_23,strain_13,strain_12,stress_11,stress_22,stress_33,stress_23,stress_13,stress_12
0.000000000000000000e+00,3.000000000000000000e+02,0.000000000000000000e+00,0.000000000000000000e+00,0.000000000000000000e+00,0.000000000000000000e+00,0.000000000000000000e+00,0.000000000000000000e+00,0.000000000000000000e+00,0.000000000000000000e+00,0.000000000000000000e+00,0.000000000000000000e+00,0.000000000000000000e+00,0.000000000000000000e+00
1.000000000000000000e+01,3.000000000000000000e+02,1.000000000000000021e-03,-4.949986956994888686e-04,-1.929613045487673739e-04,-1.819569386783037183e-45,-5.994871338503091763e-25,-1.893938440590829759e-20,1.017977813513764573e+02,8.609708993651248726e-09,3.456650079168043655e-11,5.056657684388325496e-40,-2.323406522700402004e-20,-3.567203100851545269e-17
2.000000000000000000e+01,3.000000000000000000e+02,2.000000000000000042e-03,-1.329488647534996524e-03,-2.565773858448517492e-04,-4.086476137393306449e-42,8.213857865721051963e-24,-6.743216083661991141e-19,1.350389676397075505e+02,8.580880443857444436e-09,1.146810321889979354e-10,-8.500554974673381482e-37,1.026948582952959028e-18,-6.790409256802599202e-15
3.000000000000000000e+01,3.000000000000000000e+02,3.000000000000000062e-03,-2.309047300735238631e-03,-2.649220425182277172e-04,1.821744183346225560e-41,1.724849991483724135e-23,-1.639839532350609202e-18,1.389853035346220906e+02,-3.663292477060194252e-06,8.336414362306547718e-06,-8.944923490468017056e-37,1.740508201139576701e-18,-1.048595138813252610e-14
4.000000000000000000e+01,3.000000000000000000e+02,4.000000000000000083e-03,-3.306153840582596627e-03,-2.665803753146835597e-04,8.262014248455745001e-42,2.420908503030177423e-23,-2.989274867997366573e-18,1.393882429800382567e+02,-3.663556403709326876e-06,8.337003677311781465e-06,-7.905031088162325390e-38,1.526907524764639462e-18,-8.362502082355171965e-15
5.000000000000000000e+01,3.000000000000000000e+02,5.000000000000000104e-03,-4.305056187245750836e-03,-2.675538502892771029e-04,8.074205608317800764e-41,4.480231890661513523e-24,-4.264974379266987178e-18,1.394287540740657221e+02,-3.663556358625001300e-06,8.337003584578802441e-06,2.136908485106111178e-36,8.670307418040204250e-19,-7.133696636897218118e-15
6.000000000000000000e+01,3.000000000000000000e+02,6.000000000000000125e-03,-5.304140016026613787e-03,-2.684575259781140852e-04,8.338475855573087695e-41,1.595404701900323114e-23,-5.462895526629245076e-18,1.394328305298486725e+02,-3.663556324634699492e-06,8.337003607272712452e-06,1.876335904978771040e-36,1.275239364477076236e-18,-4.394609034467274350e-15
7.000000000000000000e+01,3.000000000000000000e+02,7.000000000000000146e-03,-6.303243011760617694e-03,-2.693532424459171371e-04,8.338089912075966732e-41,1.795269015717132727e-23,-6.614889199392833039e-18,1.394332506522659685e+02,-3.663556209117353692e-06,8.337003397770680031e-06,1.876234621732181966e-36,1.275239362876942187e-18,-4.394609037676957680e-15
8.000000000000000000e+01,3.000000000000000000e+02,8.000000000000000167e-03,-7.302348880366204588e-03,-2.702472107852595161e-04,8.337896018077139672e-41,1.706447815917387475e-23,-7.292509024585753508e-18,1.394333038462296770e+02,-3.663556160782965662e-06,8.337003360363243602e-06,1.876231690927115846e-36,1.275239363202633311e-18,-4.394609037801164619e-15
9.000000000000000000e+01,3.000000000000000000e+02,9.000000000000001055e-03,-8.301455984008275155e-03,-2.711400570248269273e-04,8.337752578667474132e-41,3.256956661448216028e-23,-7.902362984496117565e-18,1.394333201964996931e+02,-3.663556146500880558e-06,8.337003334917332016e-06,1.876233165762227295e-36,1.275239363024173946e-18,-4.394609037839747017e-15
1.000000000000000000e+02,3.000000000000000000e+02,1.000000000000000194e-02,-9.300564155505144232e-03,-2.720318468435523659e-04,8.337286085438670343e-41,3.937759083227459987e-23,-8.512215348822481377e-18,1.394333328166345609e+02,-3.663556276967988995e-06,8.337003233220828421e-06,1.876232477317041595e-36,1.275239363134608695e-18,-4.394609037877288907e-15
1.100000000000000000e+02,3.000000000000000000e+02,1.100000000000000283e-02,-1.029967337521952957e-02,-2.729225896941182296e-04,8.336945421504559058e-41,2.107756893150289209e-23,-9.189829094413905234e-18,1.394333450291875351e+02,-3.663556200381195634e-06,8.337003250310356795e-06,1.876231967253329285e-36,1.275239363156016369e-18,-4.394609037831447411e-15
1.200000000000000000e+02,3.000000000000000000e+02,1.200000000000000372e-02,-1.129878363833151413e-02,-2.738122893740849292e-04,8.336813218433244638e-41,-2.357119933668844862e-25,-1.047730493765256282e-17,1.394333571676860970e+02,-3.663556302073718597e-06,8.337003159508141940e-06,1.876231275918223424e-36,1.275239363045442183e-18,-4.394609037781865137e-15
1.300000000000000000e+02,3.000000000000000000e+02,1.300000000000000461e-02,-1.229789494152152586e-02,-2.747009490999554292e-04,8.337121540210591517e-41,-7.025228242355883561e-25,-1.108715268366116605e-17,1.394333692657538961e+02,-3.663556236482316252e-06,8.337003159717147320e-06,1.876231843540962469e-36,1.275239363136172550e-18,-4.394609037851850510e-15
1.400000000000000000e+02,3.000000000000000000e+02,1.400000000000000550e-02,-1.329700728163409930e-02,-2.755885720163731836e-04,8.336642644314198717e-41,-1.318630995361764492e-23,-1.162923663799982427e-17,1.394333813269221594e+02,-3.663556348099225679e-06,8.337003072838792265e-06,1.876230722533865275e-36,1.275239363197452944e-18,-4.394609037894055357e-15
1.500000000000000000e+02,3.000000000000000000e+02,1.500000000000000638e-02,-1.429612065554370162e-02,-2.764751612473008153e-04,8.336986695736861562e-41,-1.760428834265854006e-23,-1.230684486241803075e-17,1.394333933517023354e+02,-3.663556362827504446e-06,8.337003037228290494e-06,1.876229983916372001e-36,1.275239363102166212e-18,-4.394609037882863787e-15
1.600000000000000000e+02,3.000000000000000000e+02,1.600000000000000727e-02,-1.529523506014119488e-02,-2.773607199012427722e-04,8.337073797411257719e-41,-2.388749805390539469e-23,-1.298445181730011255e-17,1.394334053403014764e+02,-3.663556285501981888e-06,8.337003047836634464e-06,1.876222689568080902e-36,1.275239363068548142e-18,-4.394609037890029011e-15
1.700000000000000000e+02,3.000000000000000000e+02,1.700000000000000816e-02,-1.629435049233238578e-02,-2.782452510718566000e-04,8.336825202312926678e-41,-2.270949298547814383e-23,-1.359429481985888172e-17,1.394334172928948874e+02,-3.663556482933549171e-06,8.337002913970485300e-06,1.876222851819409913e-36,1.275239363042264976e-18,-4.394609037855488736e-15
1.800000000000000000e+02,3.000000000000000000e+02,1.800000000000000905e-02,-1.729346694903778625e-02,-2.791287578381002857e-04,8.336642055001650994e-41,-1.848567641493308991e-23,-1.420413676094173181e-17,1.394334292096545482e+02,-3.663556349871467209e-06,8.337002962279479705e-06,1.876222949561348260e-36,1.275239362860655753e-18,-4.394609037853598625e-15
1.900000000000000000e+02,3.000000000000000000e+02,1.900000000000000994e-02,-1.829258442719252156e-02,-2.800112432643329257e-04,8.337009483206973641e-41,-1.293942935535375880e-23,-1.488173999316750512e-17,1.394334410907497670e+02,-3.663556595219922523e-06,8.337002796972765194e-06,1.876223207210876929e-36,1.275239363036500282e-18,-4.394609037853160019e-15
2.000000000000000000e+02,3.000000000000000000e+02,2.000000000000001082e-02,-1.929170292374621579e-02,-2.808927104004092139e-04,8.336891663890869273e-41,-4.956362475025754517e-24,-1.610144279116011197e-17,1.394334529363499087e+02,-3.663556731173688147e-06,8.337002693628091339e-06,1.876233093688437752e-36,1.275239363175552617e-18,-4.394609037852634637e-15
2.100000000000000000e+02,3.000000000000000000e+02,2.100000000000001171e-02,-2.029082243566290855e-02,-2.817731622817735504e-04,8.336463524107836101e-41,-2.389461140189889032e-23,-1.677904276552954676e-17,1.394334647466228603e+02,-3.663556672271855557e-06,8.337002696310192367e-06,1.876233009091785686e-36,1.275239362898467343e-18,-4.394609037887516489e-15
2.200000000000000000e+02,3.000000000000000000e+02,2.200000000000001260e-02,-2.128994295992096483e-02,-2.826526019295526868e-04,8.336852877074267932e-41,-3.023437845194263744e-23,-1.732111635243465127e-17,1.394334765217351162e+02,-3.663556604436244077e-06,8.337002708819954202e-06,1.876232589948085498e-36,1.275239362807523197e-18,-4.394609037961267095e-15
2.300000000000000000e+02,3.000000000000000000e+02,2.300000000000001349e-02,-2.228906449351297780e-02,-2.835310323506480459e-04,8.337220496013935325e-41,-4.797633822914544090e-23,-1.799871411243281237e-17,1.394334882618520055e+02,-3.663556864055389784e-06,8.337002544852022698e-06,1.876232323419917445e-36,1.275239362867840242e-18,-4.394609037954325908e-15
2.400000000000000000e+02,3.000000000000000000e+02,2.400000000000001438e-02,-2.328818703344567170e-02,-2.844084565378269570e-04,8.337770620011479245e-41,-4.879665853880674576e-23,-1.860854809119644876e-17,1.394334999671386299e+02,-3.663556903123126409e-06,8.337002491732440194e-06,1.876232277106240191e-36,1.275239362714255803e-18,-4.394609037911366909e-15
2.500000000000000000e+02,3.000000000000000000e+02,2.500000000000001527e-02,-2.428731057673981855e-02,-2.852848774698131334e-04,8.338092894986307032e-41,-6.796534609621170495e-23,-1.915061817843470157e-17,1.394335116377585848e+02,-3.663556573846995122e-06,8.337002638929607234e-06,1.876231436198679792e-36,1.275239362646320742e-18,-4.394609037845859900e-15
2.600000000000000000e+02,3.000000000000000000e+02,2.600000000000001615e-02,-2.528643512043015490e-02,-2.861602981113770395e-04,8.337871308762906828e-41,-5.542555210577147923e-23,-1.982821259377595242e-17,1.394335232738739876e+02,-3.663556352399655151e-06,8.337002726783517240e-06,1.876231495315601608e-36,1.275239362505638108e-18,-4.394609037919371481e-15
2.700000000000000000e+02,3.000000000000000000e+02,2.700000000000001704e-02,-2.628556066156528120e-02,-2.870347214134244171e-04,8.337620347276287341e-41,-5.787294084805111170e-23,-2.057356837448002770e-17,1.394335348756461030e+02,-3.663556304955954029e-06,8.337002732381483449e-06,1.876231305248954589e-36,1.275239362456771102e-18,-4.394609037951333758e-15
2.800000000000000000e+02,3.000000000000000000e+02,2.800000000000001793e-02,-2.728468719720757510e-02,-2.879081503130854602e-04,8.338243526783290031e-41,-6.976605531616905536e-23,-2.118339774866148796e-17,1.394335464432353433e+02,-3.663556445898959705e-06,8.337002626294435394e-06,1.876231295940455794e-36,1.275239362211795125e-18,-4.394609037992436567e-15
2.900000000000000000e+02,3.000000000000000000e+02,2.900000000000001882e-02,-2.828381472443310465e-02,-2.887805877338018765e-04,8.337976539498973608e-41,-4.992472706869485727e-23,-2.186098867478622026e-17,1.394335579768013247e+02,-3.663556539173399882e-06,8.337002555152868297e-06,1.876231153036791761e-36,1.275239362244027681e-18,-4.394609037989207759e-15
3.000000000000000000e+02,3.000000000000000000e+02,3.000000000000001971e-02,-2.928294324033154511e-02,-2.896520365854144373e-04,8.338251843081720327e-41,-5.395809591171357395e-23,-2.247081573797807593e-17,1.394335694765022993e+02,-3.663556679484137815e-06,8.337002455482091430e-06,1.876231937094066118e-36,1.275239362399892806e-18,-4.394609037917131905e-15
3.100000000000000000e+02,3.000000000000000000e+02,3.100000000000002059e-02,-3.028207274200608520e-02,-2.905224997642490083e-04,8.338082411482475156e-41,-3.579163485740580160e-23,-2.362274211090550880e-17,1.394335809424958086e+02,-3.663556641301080940e-06,8.337002444864850226e-06,1.876229757470716161e-36,1.275239362205107911e-18,-4.394609037915657524e-15
3.200000000000000000e+02,3.000000000000000000e+02,3.200000000000002148e-02,-3.128120322657335084e-02,-2.913919801532023103e-04,8.337459644238827417e-41,-1.294567673321669969e-23,-2.409704047087430936e-17,1.394335923749381436e+02,-3.663556551909541014e-06,8.337002472816990001e-06,1.876229421941512537e-36,1.275239362157383367e-18,-4.394609037870434495e-15
3.300000000000000000e+02,3.000000000000000000e+02,3.300000000000002237e-02,-3.228033469116331489e-02,-2.922604806218269207e-04,8.336894824771093238e-41,-5.136965546135178933e-25,-2.463910035904064875e-17,1.394336037739843732e+02,-3.663556689158623725e-06,8.337002373683967247e-06,1.876230264659765119e-36,1.275239362352373373e-18,-4.394609037871944374e-15
3.400000000000000000e+02,3.000000000000000000e+02,3.400000000000002326e-02,-3.327946713291920350e-02,-2.931280040264154074e-04,8.336936082050133729e-41,2.187878884951399396e-23,-2.524892158551484175e-17,1.394336151397899357e+02,-3.663555980795997882e-06,8.337002727778946971e-06,1.876230250505353136e-36,1.275239362277444106e-18,-4.394609037871620942e-15
3.500000000000000000e+02,3.000000000000000000e+02,3.500000000000002415e-02,-3.427860054899743714e-02,-2.939945532100839750e-04,8.336270945369871145e-41,1.084775053392574945e-23,-2.572321656855624434e-17,1.394336264725072851e+02,-3.663555372880657466e-06,8.337003032412288161e-06,1.876230439832484580e-36,1.275239362215665088e-18,-4.394609037863688156e-15
3.600000000000000000e+02,3.000000000000000000e+02,3.600000000000002504e-02,-3.527773493656752996e-02,-2.948601310028556776e-04,8.336794238409115291e-41,8.105547131589388264e-24,-2.626527302633757354e-17,1.394336377722884492e+02,-3.663555371215536382e-06,8.337003004038070174e-06,1.876230206804904424e-36,1.275239362237607208e-18,-4.394609037928231178e-15
3.700000000000000000e+02,3.000000000000000000e+02,3.700000000000002592e-02,-3.627687029281199960e-02,-2.957247402217420590e-04,8.336085944619662520e-41,8.079704296882555882e-24,-2.673956567773990504e-17,1.394336490392855694e+02,-3.663555202879566506e-06,8.337003068078445078e-06,1.876230261324466472e-36,1.275239362036392981e-18,-4.394609037966902717e-15
3.800000000000000000e+02,3.000000000000000000e+02,3.800000000000002681e-02,-3.727600661492630474e-02,-2.965883836708255519e-04,8.335402271061795541e-41,-8.905959093563381174e-24,-2.782372055416779437e-17,1.394336602736489965e+02,-3.663555156401266528e-06,8.337003065416644042e-06,1.876229170182909970e-36,1.275239361948783968e-18,-4.394609037940315738e-15
3.900000000000000000e+02,3.000000000000000000e+02,3.900000000000002770e-02,-3.827514390011875489e-02,-2.974510641413398719e-04,8.334963140620742749e-41,-1.067610263765804703e-23,-2.829801017702073195e-17,1.394336714755280866e+02,-3.663555406059246754e-06,8.337002904877390100e-06,1.876229458808675439e-36,1.275239361781691635e-18,-4.394609037903429391e-15
4.000000000000000000e+02,3.000000000000000000e+02,4.000000000000002859e-02,-3.927428214561042713e-02,-2.983127844117506276e-04,8.334854797576580489e-41,-2.892398753074198786e-23,-2.884006128616485865e-17,1.394336826450716558e+02,-3.663555822318254844e-06,8.337002657343258168e-06,1.876229331756457589e-36,1.275239361942734045e-18,-4.394609037908200422e-15
4.100000000000000000e+02,3.000000000000000000e+02,4.100000000000002948e-02,-4.027342134863508283e-02,-2.991735472478349554e-04,8.334534626052436760e-41,-2.682583653767166212e-23,-2.938211143637951122e-17,1.394336937824284917e+02,-3.663555265375165921e-06,8.337002936079305609e-06,1.876229361658329840e-36,1.275239362016290124e-18,-4.394609037965026017e-15
4.200000000000000000e+02,3.000000000000000000e+02,4.200000000000003036e-02,-4.127256150643911908e-02,-3.000333554027608289e-04,8.333805473478521554e-41,-3.148610378061374466e-23,-3.046626097246258679e-17,1.394337048877436303e+02,-3.663555674189933475e-06,8.337002696058774353e-06,1.876226404458139620e-36,1.275239361989803965e-18,-4.394609037927100740e-15
4.300000000000000000e+02,3.000000000000000000e+02,4.300000000000003125e-02,-4.227170261628144382e-02,-3.008922116171649044e-04,8.333926139651471855e-41,-1.810041868248518417e-23,-3.094054517710006588e-17,1.394337159611638697e+02,-3.663555988090214484e-06,8.337002504157444525e-06,1.876226653254133851e-36,1.275239361982884291e-18,-4.394609037989169105e-15
4.400000000000000000e+02,3.000000000000000000e+02,4.400000000000003214e-02,-4.327084467543342722e-02,-3.017501186192310717e-04,8.333943386688298307e-41,-4.246303180332222898e-23,-3.141482819665677327e-17,1.394337270028343312e+02,-3.663556109435134256e-06,8.337002414264541562e-06,1.876217183090458188e-36,1.275239362061168914e-18,-4.394609037961134566e-15
4.500000000000000000e+02,3.000000000000000000e+02,4.500000000000003303e-02,-4.426998768117881844e-02,-3.026070791247672154e-04,8.333387106825341570e-41,-2.567535614800222401e-23,-3.195687268070875727e-17,1.394337380128993971e+02,-3.663555766997662733e-06,8.337002577152919410e-06,1.876216811615645565e-36,1.275239362069336590e-18,-4.394609038024052534e-15
4.600000000000000000e+02,3.000000000000000000e+02,4.600000000000003392e-02,-4.526913163081367625e-02,-3.034630958372820848e-04,8.333268604412647222e-41,-2.524375074010796369e-24,-3.249891607805746337e-17,1.394337489915014032e+02,-3.663555849063498454e-06,8.337002510917866893e-06,1.876216950897219623e-36,1.275239362094044923e-18,-4.394609037997972004e-15
4.700000000000000000e+02,3.000000000000000000e+02,4.700000000000003481e-02,-4.626827652164627880e-02,-3.043181714480610255e-04,8.334095549339472601e-41,-5.647174318743598838e-24,-3.304095830911436355e-17,1.394337599387827424e+02,-3.663556254871958037e-06,8.337002277821448817e-06,1.876221284458492979e-36,1.275239362039881996e-18,-4.394609038071119920e-15
4.800000000000000000e+02,3.000000000000000000e+02,4.800000000000003569e-02,-4.726742235099704731e-02,-3.051723086362417110e-04,8.333641202185219204e-41,-1.585822961954161439e-23,-3.358299936601501379e-17,1.394337708548857790e+02,-3.663555969933536405e-06,8.337002409555173901e-06,1.876221953605161836e-36,1.275239361949541629e-18,-4.394609038018431900e-15
4.900000000000000000e+02,3.000000000000000000e+02,4.900000000000003658e-02,-4.826656911619849055e-02,-3.060255100688890066e-04,8.333039026343319717e-41,-1.187787402341985287e-23,-3.405727679972362848e-17,1.394337817399505468e+02,-3.663555659869813627e-06,8.337002552755373727e-06,1.876221979795449258e-36,1.275239361952928184e-18,-4.394609037991744736e-15
5.000000000000000000e+02,3.000000000000000000e+02,5.000000000000003747e-02,-4.926571681459511465e-02,-3.068777784010688040e-04,8.333018169805340166e-41,-1.986512977459140186e-23,-3.453155315615948307e-17,1.394337925941165963e+02,-3.663555359577904656e-06,8.337002686853648881e-06,1.876221405263249942e-36,1.275239361998390531e-18,-4.394609038024685990e-15
5.100000000000000000e+02,3.000000000000000000e+02,5.100000000000003836e-02,-5.026486544354336061e-02,-3.077291162759220717e-04,8.333399421763223843e-41,-3.080258596936343098e-23,-3.507359107339407566e-17,1.394338034175219150e+02,-3.663556000229020357e-06,8.337002324856668299e-06,1.876221545529716079e-36,1.275239361817065768e-18,-4.394609038024529795e-15
5.200000000000000000e+02,3.000000000000000000e+02,5.200000000000003925e-02,-5.126401500041150722e-02,-3.085795263247379308e-04,8.332548111040806882e-41,-3.365992860431939359e-23,-3.554786528216410301e-17,1.394338142103055702e+02,-3.663556428898097047e-06,8.337002068254880955e-06,1.876221539675718564e-36,1.275239361843371467e-18,-4.394609037959681484e-15
5.300000000000000000e+02,3.000000000000000000e+02,5.300000000000004013e-02,-5.226316548257962935e-02,-3.094290111670260253e-04,8.332015108036578291e-41,-1.536244092221357501e-23,-3.608990105634768000e-17,1.394338249726041568e+02,-3.663557219904630222e-06,8.337001626996726265e-06,1.876221357959229171e-36,1.275239361917049073e-18,-4.394609038021073007e-15
5.400000000000000000e+02,3.000000000000000000e+02,5.400000000000004102e-02,-5.326231688743949394e-02,-3.102775734105887840e-04,8.332670806934024829e-41,-2.681670377611609186e-23,-3.656417321731176063e-17,1.394338357045554631e+02,-3.663556844803284652e-06,8.337001809460260835e-06,1.876221358212895590e-36,1.275239361981289621e-18,-4.394609038085358071e-15
5.500000000000000000e+02,3.000000000000000000e+02,5.500000000000004191e-02,-5.426146921239453219e-02,-3.111252156515927070e-04,8.332413128025426870e-41,-5.089013844560303220e-23,-3.710620677634249074e-17,1.394338464062934406e+02,-3.663556883278323101e-06,8.337001763624185896e-06,1.876221542216347800e-36,1.275239362087974392e-18,-4.394609038143167375e-15
5.600000000000000000e+02,3.000000000000000000e+02,5.600000000000004280e-02,-5.526062245485972857e-02,-3.119719404746390556e-04,8.332683268712267074e-41,-5.177164263099539805e-23,-3.764823931691024463e-17,1.394338570779528936e+02,-3.663557186649265022e-06,8.337001580242354109e-06,1.876221543298662153e-36,1.275239362086039988e-18,-4.394609038144522639e-15
5.700000000000000000e+02,3.000000000000000000e+02,5.700000000000004369e-02,-5.625977661226155835e-02,-3.128177504528343797e-04,8.332714582021063318e-41,-5.788230119358020003e-23,-3.812250816026565894e-17,1.394338677196686547e+02,-3.663556676958699342e-06,8.337001831604263504e-06,1.876221681138890376e-36,1.275239362132580085e-18,-4.394609038106861630e-15
5.800000000000000000e+02,3.000000000000000000e+02,5.800000000000004458e-02,-5.725893168203794598e-02,-3.136626481478603404e-04,8.332582135345212590e-41,-4.605943686828835845e-23,-3.866453853560529234e-17,1.394338783315720320e+02,-3.663557152231459332e-06,8.337001555270391338e-06,1.876221024525097222e-36,1.275239362090315167e-18,-4.394609038103714864e-15
5.900000000000000000e+02,3.000000000000000000e+02,5.900000000000004546e-02,-5.825808766163814711e-02,-3.145066361100426651e-04,8.332751621618981652e-41,-2.422091593646202311e-23,-3.913880521842866898e-17,1.394338889137969204e+02,-3.663556790683518021e-06,8.337001734163495688e-06,1.876220920280360757e-36,1.275239361994714894e-18,-4.394609038133454920e-15
6.000000000000000000e+02,3.000000000000000000e+02,6.000000000000004635e-02,-5.925724454852272782e-02,-3.153497168784205368e-04,8.333595255807894696e-41,-1.486000656466120665e-23,-3.968083352693896261e-17,1.394338994664736333e+02,-3.663556821286532108e-06,8.337001702056257813e-06,1.876221447715380220e-36,1.275239362023892155e-18,-4.394609038097938824e-15
6.100000000000000000e+02,3.000000000000000000e+02,6.100000000000004724e-02,-6.025640234016346047e-02,-3.161918929808139769e-04,8.333035227680853570e-41,-2.209762870471301994e-23,-4.015509810299911633e-17,1.394339099897337348e+02,-3.663556194732110563e-06,8.337002020185847596e-06,1.876221420985251791e-36,1.275239362237972750e-18,-4.394609038128446442e-15
6.200000000000000000e+02,3.000000000000000000e+02,6.200000000000004813e-02,-6.125556103404328906e-02,-3.170331669338920960e-04,8.333500994694558964e-41,-1.493190318043613823e-23,-4.069712426466527379e-17,1.394339204837057480e+02,-3.663556281803902109e-06,8.337001953469565168e-06,1.876221419950890512e-36,1.275239362218294753e-18,-4.394609038158695314e-15
6.300000000000000000e+02,3.000000000000000000e+02,6.300000000000004208e-02,-6.225472062765621817e-02,-3.178735412432397720e-04,8.334007829493899685e-41,6.326518341522131416e-24,-4.117138665405843421e-17,1.394339309485194462e+02,-3.663556257850366437e-06,8.337001950660973321e-06,1.876221214851133384e-36,1.275239362234023052e-18,-4.394609038133781508e-15
6.400000000000000000e+02,3.000000000000000000e+02,6.400000000000004297e-02,-6.325388111850729911e-02,-3.187130184034251963e-04,8.333385550151072087e-41,1.021364661080786356e-23,-4.164564800563205488e-17,1.394339413843034947e+02,-3.663555869662208943e-06,8.337002136968126565e-06,1.876220553674021795e-36,1.275239362275078871e-18,-4.394609038128134053e-15
6.500000000000000000e+02,3.000000000000000000e+02,6.500000000000004385e-02,-6.425304250411252582e-02,-3.195516008980648173e-04,8.333646829849450939e-41,2.545217159699693694e-25,-4.198438307114747328e-17,1.394339517911843700e+02,-3.663556049869485334e-06,8.337002014764701208e-06,1.876219023121552803e-36,1.275239362302268187e-18,-4.394609038107682834e-15
6.600000000000000000e+02,3.000000000000000000e+02,6.600000000000004474e-02,-6.525220478199876550e-02,-3.203892911998896934e-04,8.333779906723137604e-41,-1.820364369922083574e-23,-4.245864246221021151e-17,1.394339621692903961e+02,-3.663555122201281714e-06,8.337002486854731511e-06,1.876215940727162224e-36,1.275239362329894304e-18,-4.394609038137369248e-15
6.700000000000000000e+02,3.000000000000000000e+02,6.700000000000004563e-02,-6.625136794970373777e-02,-3.212260917708107625e-04,8.333108400828294314e-41,-3.803017044543201885e-23,-4.354276388646873604e-17,1.394339725187454917e+02,-3.663555313109998619e-06,8.337002363495377231e-06,1.876220698535187297e-36,1.275239362455364403e-18,-4.394609038140814992e-15
6.800000000000000000e+02,3.000000000000000000e+02,6.800000000000004652e-02,-6.725053200477588977e-02,-3.220620050619829177e-04,8.332751799499314690e-41,-1.710639970883940703e-23,-4.394925743695757907e-17,1.394339828396765313e+02,-3.663554815721467144e-06,8.337002618384577459e-06,1.876220840977453294e-36,1.275239362333162800e-18,-4.394609038137632727e-15
6.900000000000000000e+02,3.000000000000000000e+02,6.900000000000004741e-02,-6.824969694477438231e-02,-3.228970335138698429e-04,8.333291990673020164e-41,-2.737599353087471650e-23,-4.435574995369924734e-17,1.394339931322073767e+02,-3.663554272490898889e-06,8.337002895100017639e-06,1.876220904190887169e-36,1.275239362360409316e-18,-4.394609038197876457e-15
7.000000000000000000e+02,3.000000000000000000e+02,7.000000000000004829e-02,-6.924886276726900658e-02,-3.237311795563072763e-04,8.334230150808000170e-41,-2.319778023633677777e-23,-4.537210467808261683e-17,1.394340033964609233e+02,-3.663554612090339088e-06,8.337002693897239446e-06,1.876220878591174506e-36,1.275239362337179327e-18,-4.394609038252392268e-15
7.100000000000000000e+02,3.000000000000000000e+02,7.100000000000004918e-02,-7.024802946984011476e-02,-3.245644456085660561e-04,8.333443764465516091e-41,-2.327897961437384705e-23,-4.577859433546077094e-17,1.394340136325600383e+02,-3.663555884027629383e-06,8.337001994494545483e-06,1.876219320526136241e-36,1.275239362324053537e-18,-4.394609038273637081e-15
7.200000000000000000e+02,3.000000000000000000e+02,7.200000000000005007e-02,-7.124719705007853676e-02,-3.253968340794152758e-04,8.332930487439258442e-41,-1.157991569359985505e-23,-4.625284560212937430e-17,1.394340238406304309e+02,-3.663554516362998222e-06,8.337002710256721981e-06,1.876219326390912682e-36,1.275239362400730778e-18,-4.394609038249877379e-15
7.300000000000000000e+02,3.000000000000000000e+02,7.300000000000005096e-02,-7.224636550558560799e-02,-3.262283473671846257e-04,8.332154317869651702e-41,-1.984138968858226132e-23,-4.665933325151328384e-17,1.394340340207889426e+02,-3.663555499944083013e-06,8.337002165045322285e-06,1.876219309191766656e-36,1.275239362366264721e-18,-4.394609038279383932e-15
7.400000000000000000e+02,3.000000000000000000e+02,7.400000000000005185e-02,-7.324553483397298892e-02,-3.270589878598252707e-04,8.331726634337185485e-41,-2.849874925188972517e-23,-4.713358243470771792e-17,1.394340441731584690e+02,-3.663556543732222684e-06,8.337001589573982257e-06,1.876218658443603891e-36,1.275239362289962265e-18,-4.394609038302843867e-15
7.500000000000000000e+02,3.000000000000000000e+02,7.500000000000005274e-02,-7.424470503286266510e-02,-3.278887579349722462e-04,8.330843191415127063e-41,-3.283499532016587031e-23,-4.754006799881567522e-17,1.394340542978606265e+02,-3.663556069827908794e-06,8.337001828710759993e-06,1.876216644393355397e-36,1.275239362208124495e-18,-4.394609038302204101e-15
7.600000000000000000e+02,3.000000000000000000e+02,7.600000000000005362e-02,-7.524387609988690551e-02,-3.287176599600051194e-04,8.331056526564384431e-41,-9.875440043209954114e-24,-4.801431518051424819e-17,1.394340643950131380e+02,-3.663555971824306643e-06,8.337001862752392421e-06,1.876216211051491404e-36,1.275239362287639401e-18,-4.394609038302284564e-15
7.700000000000000000e+02,3.000000000000000000e+02,7.700000000000005451e-02,-7.624304803268816544e-02,-3.295456962921076744e-04,8.331554724880848734e-41,-1.766743300124058559e-23,-4.842079878399330207e-17,1.394340744647341523e+02,-3.663556718641150442e-06,8.337001444889016684e-06,1.876216119640166662e-36,1.275239362259330542e-18,-4.394609038310257582e-15
7.800000000000000000e+02,3.000000000000000000e+02,7.800000000000005540e-02,-7.724222082891901708e-02,-3.303728692783284649e-04,8.330810363141171279e-41,-2.989820042468741163e-23,-4.882728145838025751e-17,1.394340845071438935e+02,-3.663555935620392224e-06,8.337001850247645021e-06,1.876216230473046298e-36,1.275239362193066034e-18,-4.394609038342417074e-15
7.900000000000000000e+02,3.000000000000000000e+02,7.900000000000005629e-02,-7.824139448624213566e-02,-3.311991812556406623e-04,8.330461166857828745e-41,-5.168698819840104352e-23,-4.930152579863010711e-17,1.394340945223585493e+02,-3.663554858966001159e-06,8.337002407964498542e-06,1.876216416972178190e-36,1.275239362215825903e-18,-4.394609038337043354e-15
8.000000000000000000e+02,3.000000000000000000e+02,8.000000000000005718e-02,-7.924056900233021616e-02,-3.320246345510004401e-04,8.330544230503775767e-41,-3.684320244816988180e-23,-4.977576904456219277e-17,1.394341045104938814e+02,-3.663554385242351774e-06,8.337002641182933408e-06,1.876216621805889322e-36,1.275239362251015725e-18,-4.394609038311769039e-15
8.100000000000000000e+02,3.000000000000000000e+02,8.100000000000005806e-02,-8.023974437486590394e-02,-3.328492314814057371e-04,8.331206807755949839e-41,-2.032789860009401221e-23,-5.018224876782824864e-17,1.394341144716658789e+02,-3.663554385807176213e-06,8.337002624381247159e-06,1.876216511208600197e-36,1.275239362338693878e-18,-4.394609038285184427e-15
8.200000000000000000e+02,3.000000000000000000e+02,8.200000000000005895e-02,-8.123892060154173922e-02,-3.336729743539548591e-04,8.332250001147455866e-41,-1.893252814954705474e-23,-5.065649012073697068e-17,1.394341244059908149e+02,-3.663553812903588189e-06,8.337002915217541415e-06,1.876216395656585957e-36,1.275239362416620085e-18,-4.394609038338820657e-15
8.300000000000000000e+02,3.000000000000000000e+02,8.300000000000005984e-02,-8.223809768006011545e-02,-3.344958654659040500e-04,8.332663827459521012e-41,1.822328103568037835e-24,-5.119849302658951465e-17,1.394341343135832005e+02,-3.663552740354538391e-06,8.337003471555770888e-06,1.876216332012864694e-36,1.275239362442909992e-18,-4.394609038336050178e-15
8.400000000000000000e+02,3.000000000000000000e+02,8.400000000000006073e-02,-8.323727560813322379e-02,-3.353179071047247372e-04,8.332420713221973547e-41,1.177449696999619238e-23,-5.167273241969822887e-17,1.394341441945555005e+02,-3.663552702355266066e-06,8.337003482349999626e-06,1.876215531118436881e-36,1.275239362565979612e-18,-4.394609038328817112e-15
8.500000000000000000e+02,3.000000000000000000e+02,8.500000000000006162e-02,-8.423645438348296988e-02,-3.361391015481605613e-04,8.332052765608805968e-41,1.547613727696494833e-23,-5.214697072927016518e-17,1.394341540490213447e+02,-3.663553268057002196e-06,8.337003159065047147e-06,1.876215519571551764e-36,1.275239362579104824e-18,-4.394609038352142151e-15
8.600000000000000000e+02,3.000000000000000000e+02,8.600000000000006251e-02,-8.523563400384091826e-02,-3.369594510642836996e-04,8.332214166072464247e-41,2.420307759976088477e-24,-5.262120804084229425e-17,1.394341638770956138e+02,-3.663552007320872208e-06,8.337003816381924874e-06,1.876215416791584909e-36,1.275239362580677154e-18,-4.394609038350655937e-15
8.700000000000000000e+02,3.000000000000000000e+02,8.700000000000006339e-02,-8.623481446694829244e-02,-3.377789579115515165e-04,8.333239266610634004e-41,-1.976418174506269547e-23,-5.302768159640026861e-17,1.394341736788870776e+02,-3.663552329248135480e-06,8.337003631485355925e-06,1.876213959009312680e-36,1.275239362559265435e-18,-4.394609038328243610e-15
8.800000000000000000e+02,3.000000000000000000e+02,8.800000000000006428e-02,-8.723399577055583609e-02,-3.385976243388615320e-04,8.332362537496295986e-41,-8.856054371998462284e-24,-5.343415424075787964e-17,1.394341834545095082e+02,-3.663551550499677193e-06,8.337004028383924217e-06,1.876213827066137205e-36,1.275239362581903778e-18,-4.394609038325774476e-15
8.900000000000000000e+02,3.000000000000000000e+02,8.900000000000006517e-02,-8.823317791242382691e-02,-3.394154525856070957e-04,8.332573750541415754e-41,-3.839228772991101170e-24,-5.390838852893297658e-17,1.394341932040721019e+02,-3.663551196907286163e-06,8.337004205231752320e-06,1.876213728734697549e-36,1.275239362508516218e-18,-4.394609038354585254e-15
9.000000000000000000e+02,3.000000000000000000e+02,9.000000000000006606e-02,-8.923236089032199336e-02,-3.402324448817323557e-04,8.332879028233733728e-41,-9.047145877577146847e-24,-5.431485923220909043e-17,1.394342029276836570e+02,-3.663552597444991144e-06,8.337003437724627841e-06,1.876213944619153829e-36,1.275239362573901925e-18,-4.394609038270160571e-15
9.100000000000000000e+02,3.000000000000000000e+02,9.100000000000006695e-02,-9.023154470202943145e-02,-3.410486034477860895e-04,8.332513340276482452e-41,-1.085539742583596875e-23,-5.485685405867139171e-17,1.394342126254561833e+02,-3.663552821321747392e-06,8.337003301807654365e-06,1.876214175248723473e-36,1.275239362545296087e-18,-4.394609038272407246e-15
9.200000000000000000e+02,3.000000000000000000e+02,9.200000000000006783e-02,-9.123072934533460465e-02,-3.418639304949769439e-04,8.332912166613807982e-41,5.875280567305130769e-24,-5.526332270929078535e-17,1.394342222974975982e+02,-3.663552903296610928e-06,8.337003239136564123e-06,1.876214155179266359e-36,1.275239362601424619e-18,-4.394609038267839742e-15
9.300000000000000000e+02,3.000000000000000000e+02,9.300000000000006872e-02,-9.222991481803526070e-02,-3.426784282252259102e-04,8.332499827520659326e-41,2.467534812890683207e-23,-5.560202769581595818e-17,1.394342319439160178e+02,-3.663552819701236569e-06,8.337003274758880310e-06,1.876213704394183141e-36,1.275239362735070483e-18,-4.394609038225538653e-15
9.400000000000000000e+02,3.000000000000000000e+02,9.400000000000006961e-02,-9.322910111793838994e-02,-3.434920988312203179e-04,8.333476838013151496e-41,1.393853137137954523e-23,-5.607625693440733941e-17,1.394342415648178815e+02,-3.663553588439254079e-06,8.337002847698664777e-06,1.876213769447922429e-36,1.275239362631681941e-18,-4.394609038224058750e-15
9.500000000000000000e+02,3.000000000000000000e+02,9.500000000000007050e-02,-9.422828824286014204e-02,-3.443049444964665267e-04,8.334140202360264645e-41,2.627260678057619324e-23,-5.641495984317061419e-17,1.394342511603123569e+02,-3.663552861601312032e-06,8.337003222427736402e-06,1.876215849473651876e-36,1.275239362703366595e-18,-4.394609038271860566e-15
9.600000000000000000e+02,3.000000000000000000e+02,9.600000000000007139e-02,-9.522747619062583990e-02,-3.451169673953426728e-04,8.333259480032313234e-41,4.122000814911337201e-23,-5.675366161216300121e-17,1.394342607305024160e+02,-3.663554152977572245e-06,8.337002514481771571e-06,1.876215838568771859e-36,1.275239362664188172e-18,-4.394609038327941476e-15
9.700000000000000000e+02,3.000000000000000000e+02,9.700000000000007228e-02,-9.622666495906984085e-02,-3.459281696931500606e-04,8.332172896568732802e-41,4.801802554665596552e-23,-5.770222571805262669e-17,1.394342702754957202e+02,-3.663555243283790679e-06,8.337001916020407284e-06,1.876213026840149136e-36,1.275239362628499150e-18,-4.394609038306438706e-15
9.800000000000000000e+02,3.000000000000000000e+02,9.800000000000007316e-02,-9.722585454603555055e-02,-3.467385535461660166e-04,8.331945153878927005e-41,3.733648812903520834e-23,-5.790539952949862107e-17,1.394342797953968045e+02,-3.663556709829497609e-06,8.337001112949466103e-06,1.876213809358225070e-36,1.275239362574055999e-18,-4.394609038306516014e-15
9.900000000000000000e+02,3.000000000000000000e+02,9.900000000000007405e-02,-9.822504494937532582e-02,-3.475481211016945228e-04,8.332878181131236277e-41,1.774166680661811500e-23,-5.824409776132161343e-17,1.394342892903123357e+02,-3.663556276929566734e-06,8.337001332113235742e-06,1.876213514727516697e-36,1.275239362637451642e-18,-4.394609038325986679e-15
1.000000000000000000e+03,3.000000000000000000e+02,1.000000000000000749e-01,-9.922423616695048854e-02,-3.483568744981177154e-04,8.334130988371994558e-41,3.229351130358385753e-23,-5.919265817738921025e-17,1.394342987603436086e+02,-3.663556697195407854e-06,8.337001096954392389e-06,1.876221203567811266e-36,1.275239362738456075e-18,-4.394609038320889849e-15
